LAMMPS (22 Aug 2018)
####################################################
#  Transport properties of NaB(OH)4 in water
#  at 298 K and 1 atm.
#################### SETTING UP ####################
units real
dimension 3
newton on
boundary p p p
atom_style full

#################### VARIABLES ####################
variable Temp equal 298       # Temperature in K
variable Pres equal 1.0       # Pressure in atm.

variable RandomSeed equal 500 # The random seed for velocity
variable tstep equal 1.0      # 1fs
variable Ninptpre equal 10000 # Pre-initialize the NPT ensemble (very small timesteps)
variable Ninpt equal 5000000  # Initialize the NPT ensemble
variable Npnpt equal 5000000  # Production in the NPT ensemble (volume)
variable Ninvtpre equal 10000 # Pre-initialize the NVT ensemble (very small timesteps)
variable Ninvt equal 1000000   # Initialize the NVT ensemble
variable Nrun equal 20000000    # production in the NVT ensemble
variable Nf equal 10000       # Nfreq (fix ave/time and thermo)
variable Ne equal  10         # Nevery (fix ave/time)
variable Nr equal ${Nf}/${Ne} # Nrepeat (fix ave/time)
variable Nr equal 10000/${Ne} 
variable Nr equal 10000/10 
variable NBR equal ${Npnpt}/10 # Block averaging for density (NPT)
variable NBR equal 5000000/10 
variable Nd equal ${Nrun}/10 # Frequency of outputting positions of atoms in the NVT ensemble
variable Nd equal 20000000/10 

variable nb equal 10          # Number of blocks (fix ordern)
variable nbe equal 20         # Number of block elements (fix ordern)
variable Nvisc equal 5        # Nevery for viscosity (fix ordern: sample data at (Nvisc*2))
variable Ncond equal 5        # Nevery for Tconductivity (fix ordern: sample data at (Ncond*2))
variable Ndiff equal 1000     # Nevery for diffusivity (fix ordern: sample data at (Ndiff))
variable Nwrit equal 100000   # Nwrite for transport properties (fix ordern: write every (Nwrit))

variable Nrdfe equal 100      # Nevery for RDF (fix ave/time)
variable Nrdfw equal 1000     # Nwrite for RDF (compute rdf/ext: write every (Nrdfw*Nrdfe))
variable binnum equal 2000    # Number of bins for RDF

#################### ATOM DEFINITION and FORCEFIELD ####################
read_data ./data.lmp                     # read the positions
  orthogonal box = (0 0 0) to (33.2816 33.2816 33.2816)
  4 by 4 by 8 MPI processor grid
  reading atoms ...
  3384 atoms
  scanning bonds ...
  4 = max bonds/atom
  scanning angles ...
  6 = max angles/atom
  reading bonds ...
  2274 bonds
  reading angles ...
  1324 angles
  4 = max # of 1-2 neighbors
  3 = max # of 1-3 neighbors
  3 = max # of 1-4 neighbors
  4 = max # of special neighbors
include ./forcefield.data                  # read the force field
# ----------------- INTERMOLECULAR POTENTIAL -------------------
# ---------------Developed for Na(B(OH)4) in water (tip4p/2005) system-----

mass 1 15.9994 # Ow
mass 2 1.00794 # Hw
mass 3 22.9397 # Na
mass 4 0.0500  # M
mass 5 10.811  # B(B(OH)4)
mass 6 17.008  # OH(B(OH)4)
mass 7 0.9830  # (H2 - 0.05)/2
mass 8 0.0500  # L site Marx force field

pair_style lj/cut/tip4p/long 1 2 1 1 0.1546 10.0
kspace_style pppm/tip4p 1.0e-5
pair_modify tail yes # ATC

#-----------------Combinations----------------------------

pair_coeff 1 1 0.1852 3.1589     # Ow-Ow
pair_coeff 1 2 0.0000 0.0000     # Ow-Hw
pair_coeff 1 3 0.1897 2.60838    # Ow-Na
pair_coeff 1 4 0.0000 0.0000     # Ow-M
pair_coeff 1 5 0.0000 0.0000     # Ow-B(B(OH)4)
pair_coeff 1 6 0.1361 3.0100     # Ow-OH(B(OH)4)
pair_coeff 1 7 0.0000 0.0000     # Ow-H (Marx)
pair_coeff 1 8 0.1162 3.05845    # Ow-L (Marx)

pair_coeff 2 2 0.0000 0.0000     # Hw-Hw
pair_coeff 2 3 0.0000 0.0000     # Hw-Na
pair_coeff 2 4 0.0000 0.0000     # Hw-M
pair_coeff 2 5 0.0000 0.0000     # Hw-B(B(OH)4)
pair_coeff 2 6 0.0000 0.0000     # Hw-OH(B(OH)4)
pair_coeff 2 7 0.0000 0.0000     # Hw-H (Marx)
pair_coeff 2 8 0.0000 0.0000     # Hw-L (Marx)

pair_coeff 3 3 0.3519 2.2174     # Na-Na
pair_coeff 3 4 0.0000 0.0000     # Na-M
pair_coeff 3 5 0.0000 0.0000     # Na-B(B(OH)4)
pair_coeff 3 6 0.1876 2.5837     # Na-OH(B(OH)4)
pair_coeff 3 7 0.0000 0.0000     # Na-H (Marx)
pair_coeff 3 8 0.1602 2.5877     # Na-L (Marx)

pair_coeff 4 4 0.0000 0.0000     # M-M
pair_coeff 4 5 0.0000 0.0000     # M-B
pair_coeff 4 6 0.0000 0.0000     # M-OH
pair_coeff 4 7 0.0000 0.0000     # M-H (Marx)
pair_coeff 4 8 0.0000 0.0000     # M-L (Marx)

pair_coeff 5 5 0.0000 0.0000     # B(B(OH)4)-B(B(OH)4)
pair_coeff 5 6 0.0000 0.0000     # B(B(OH)4)-OH(B(OH)4)
pair_coeff 5 7 0.0000 0.0000     # B(B(OH)4)-H (Marx)
pair_coeff 5 8 0.0000 0.0000     # B(B(OH)4)-L (Marx)

pair_coeff 6 6 0.1000 2.9500     # OH(B(OH)4)-OH(B(OH)4)
pair_coeff 6 7 0.0000 0.0000     # OH(B(OH)4)-H (Marx)
pair_coeff 6 8 0.0853 2.9540     # OH(B(OH)4)-L (Marx)

pair_coeff 7 7 0.0000 0.0000     # H-H (Marx)
pair_coeff 7 8 0.0000 0.0000     # H-L (Marx)

pair_coeff 8 8 0.0729 2.9580     # L-L (Marx)

#Specify bonds/angles
bond_style  harmonic
bond_coeff 1 1000 0.9572          # Ow-Hw
bond_coeff 2 1000 0.5000          # Na-M
bond_coeff 3 1000 1.4900          # B(B(OH)4)-OH(B(OH)4)
bond_coeff 4 1000 0.7400          # H - L

angle_style harmonic
angle_coeff 1 100 104.52          # H-O-H
angle_coeff 2 100 109.5           # OH(B(OH)4)-B(B(OH)4)-OH(B(OH)4)
#dihedral_style none
#improper_style none

#Specify charges

set type 1 charge -1.1128        # O
  1000 settings made for charge
set type 2 charge +0.5564        # OH
  2000 settings made for charge
set type 3 charge +0.8500        # Na
  54 settings made for charge
set type 4 charge 0.00000        # M
  54 settings made for charge
set type 5 charge +2.5500        # B(B(OH)4)
  54 settings made for charge
set type 6 charge -0.8500        # OH(B(OH)4)
  216 settings made for charge
set type 7 charge +0.4680        # H (Marx)
  4 settings made for charge
set type 8 charge -0.9360        # L (Marx)
  2 settings made for charge





#################### INITIALIZATION ####################
# groups for the central atoms of water (O) and methanol (O)
group wat type 1      # The Oxygen of WATER molecules
1000 atoms in group wat
group Na type 3
54 atoms in group Na
group B type 5
54 atoms in group B
group OH type 6
216 atoms in group OH
group H2  type 8
2 atoms in group H2

# neigbor lists
neighbor 2.0 bin
neigh_modify every 1 delay 0 check yes

# velocity-Verlet integrator
run_style verlet

# minimizing the system using the conjugate gradient method
#min_style cg
#min_modify dmax 0.05
#minimize 1.0e-6 1.0e-6 1000 10000
#reset_timestep 0

# initializing velocities
velocity all create ${Temp} ${RandomSeed}
velocity all create 298 ${RandomSeed}
velocity all create 298 500

# rate of writing thermal properties to the log file
thermo ${Nf}
thermo 10000

#################### 1) Initialize the NPT ensemble ####################
# applying the shake algorithm for rigid molecules and the NPT solver
#fix constrain all shake 1.0e-6 1000 0 b 1 a 1
fix integrate all rigid/npt/small molecule temp ${Temp} ${Temp} 10.0 iso ${Pres} ${Pres} 100.0
fix integrate all rigid/npt/small molecule temp 298 ${Temp} 10.0 iso ${Pres} ${Pres} 100.0
fix integrate all rigid/npt/small molecule temp 298 298 10.0 iso ${Pres} ${Pres} 100.0
fix integrate all rigid/npt/small molecule temp 298 298 10.0 iso 1 ${Pres} 100.0
fix integrate all rigid/npt/small molecule temp 298 298 10.0 iso 1 1 100.0
1110 rigid bodies with 3384 atoms
  1.49001 = max distance from body owner to body atom


# Initializing the whole system with very small timesteps in the NPT ensemble
timestep 0.001
run ${Ninptpre}
run 10000
PPPM initialization ...
  extracting TIP4P info from pair style
  using 12-bit tables for long-range coulomb (../kspace.cpp:321)
  G vector (1/distance) = 0.312312
  grid = 32 32 32
  stencil order = 5
  estimated absolute RMS force accuracy = 0.00371576
  estimated relative force accuracy = 1.11899e-05
  using double precision FFTs
  3d grid and FFT values/proc = 2475 256
Neighbor list info ...
  update every 1 steps, delay 0 steps, check yes
  max neighbors/atom: 2000, page size: 100000
  master list distance cutoff = 12.3092
  ghost atom cutoff = 12.3092
  binsize = 6.1546, bins = 6 6 6
  1 neighbor lists, perpetual/occasional/extra = 1 0 0
  (1) pair lj/cut/tip4p/long, perpetual
      attributes: half, newton on
      pair build: half/bin/newton
      stencil: half/bin/3d/newton
      bin: standard
Per MPI rank memory allocation (min/avg/max) = 13.57 | 13.62 | 14.09 Mbytes
Step Temp E_pair E_mol TotEng Press Volume 
       0    295.45101   -316.21653    547.60901    2169.1894    5810478.2     36864.83 
   10000    928.78094   -5627.9123    547.61038    1011.3639    8920.6154    37746.532 
Loop time of 11.2763 on 128 procs for 10000 steps with 3384 atoms

Performance: 0.077 ns/day, 313.231 hours/ns, 886.815 timesteps/s
99.4% CPU use with 128 MPI tasks x no OpenMP threads

MPI task timing breakdown:
Section |  min time  |  avg time  |  max time  |%varavg| %total
---------------------------------------------------------------
Pair    | 1.8503     | 2.8118     | 3.6765     |  23.1 | 24.94
Bond    | 0.0065487  | 0.011817   | 0.020073   |   2.3 |  0.10
Kspace  | 3.1159     | 4.0334     | 4.9617     |  19.0 | 35.77
Neigh   | 0.00036863 | 0.00038932 | 0.00041664 |   0.0 |  0.00
Comm    | 0.86543    | 0.99239    | 1.1477     |   6.7 |  8.80
Output  | 0.00010143 | 0.00010326 | 0.00010733 |   0.0 |  0.00
Modify  | 3.1936     | 3.297      | 3.3528     |   1.9 | 29.24
Other   |            | 0.1294     |            |       |  1.15

Nlocal:    26.4375 ave 33 max 20 min
Histogram: 3 7 13 21 17 21 32 4 6 4
Nghost:    2801.86 ave 2859 max 2762 min
Histogram: 16 12 29 20 8 11 3 6 16 7
Neighs:    9368.64 ave 12551 max 6556 min
Histogram: 4 10 15 21 24 22 13 12 6 1

Total # of neighbors = 1199186
Ave neighs/atom = 354.369
Ave special neighs/atom = 2.12766
Neighbor list builds = 1
Dangerous builds = 0
timestep 0.01
run ${Ninptpre}
run 10000
PPPM initialization ...
  extracting TIP4P info from pair style
  using 12-bit tables for long-range coulomb (../kspace.cpp:321)
  G vector (1/distance) = 0.311747
  grid = 32 32 32
  stencil order = 5
  estimated absolute RMS force accuracy = 0.00380391
  estimated relative force accuracy = 1.14554e-05
  using double precision FFTs
  3d grid and FFT values/proc = 2475 256
Per MPI rank memory allocation (min/avg/max) = 13.57 | 13.63 | 14.09 Mbytes
Step Temp E_pair E_mol TotEng Press Volume 
   10000    928.78094    -5627.911    547.61038    1011.3653    3110.5216    37746.532 
   20000    450.74167   -15371.868    547.62343   -11867.931    3120.0078    33326.872 
Loop time of 11.5705 on 128 procs for 10000 steps with 3384 atoms

Performance: 0.747 ns/day, 32.140 hours/ns, 864.268 timesteps/s
99.4% CPU use with 128 MPI tasks x no OpenMP threads

MPI task timing breakdown:
Section |  min time  |  avg time  |  max time  |%varavg| %total
---------------------------------------------------------------
Pair    | 1.8505     | 2.783      | 3.8106     |  23.0 | 24.05
Bond    | 0.0079347  | 0.011776   | 0.019415   |   2.1 |  0.10
Kspace  | 3.2177     | 4.2799     | 5.1753     |  18.4 | 36.99
Neigh   | 0.0039093  | 0.004149   | 0.0044062  |   0.2 |  0.04
Comm    | 0.88155    | 1.0102     | 1.148      |   6.5 |  8.73
Output  | 9.4908e-05 | 9.8796e-05 | 0.00010223 |   0.0 |  0.00
Modify  | 3.2377     | 3.3378     | 3.4029     |   2.0 | 28.85
Other   |            | 0.1436     |            |       |  1.24

Nlocal:    26.4375 ave 34 max 19 min
Histogram: 3 3 16 17 29 17 19 8 12 4
Nghost:    3043.66 ave 3091 max 3001 min
Histogram: 5 10 13 22 21 18 14 12 10 3
Neighs:    10319.9 ave 14642 max 6874 min
Histogram: 4 12 14 28 22 16 16 13 2 1

Total # of neighbors = 1320943
Ave neighs/atom = 390.35
Ave special neighs/atom = 2.12766
Neighbor list builds = 12
Dangerous builds = 0
timestep 0.1
run ${Ninptpre}
run 10000
PPPM initialization ...
  extracting TIP4P info from pair style
  using 12-bit tables for long-range coulomb (../kspace.cpp:321)
  G vector (1/distance) = 0.314707
  grid = 32 32 32
  stencil order = 5
  estimated absolute RMS force accuracy = 0.00336244
  estimated relative force accuracy = 1.01259e-05
  using double precision FFTs
  3d grid and FFT values/proc = 2475 256
Per MPI rank memory allocation (min/avg/max) = 13.58 | 13.71 | 14.1 Mbytes
Step Temp E_pair E_mol TotEng Press Volume 
   20000    450.74167   -15371.864    547.62343   -11867.927    2316.4499    33326.872 
   30000    307.54166    -19266.39    547.62969   -16701.664   -400.58373    32435.417 
Loop time of 13.7764 on 128 procs for 10000 steps with 3384 atoms

Performance: 6.272 ns/day, 3.827 hours/ns, 725.878 timesteps/s
99.4% CPU use with 128 MPI tasks x no OpenMP threads

MPI task timing breakdown:
Section |  min time  |  avg time  |  max time  |%varavg| %total
---------------------------------------------------------------
Pair    | 2.4721     | 3.3375     | 4.3201     |  20.5 | 24.23
Bond    | 0.0086059  | 0.011767   | 0.017071   |   1.7 |  0.09
Kspace  | 3.7118     | 4.6493     | 5.4908     |  17.1 | 33.75
Neigh   | 0.019689   | 0.020675   | 0.021723   |   0.5 |  0.15
Comm    | 1.051      | 1.1962     | 1.3496     |   6.3 |  8.68
Output  | 9.7753e-05 | 0.00010009 | 0.00010376 |   0.0 |  0.00
Modify  | 4.2972     | 4.4015     | 4.4822     |   2.0 | 31.95
Other   |            | 0.1594     |            |       |  1.16

Nlocal:    26.4375 ave 35 max 18 min
Histogram: 1 5 13 15 29 36 15 7 6 1
Nghost:    3147.81 ave 3174 max 3125 min
Histogram: 5 8 15 16 31 19 15 11 6 2
Neighs:    10732 ave 13995 max 7103 min
Histogram: 2 5 7 21 23 23 23 12 6 6

Total # of neighbors = 1373701
Ave neighs/atom = 405.94
Ave special neighs/atom = 2.12766
Neighbor list builds = 50
Dangerous builds = 0
timestep 0.2
run ${Ninptpre}
run 10000
PPPM initialization ...
  extracting TIP4P info from pair style
  using 12-bit tables for long-range coulomb (../kspace.cpp:321)
  G vector (1/distance) = 0.315345
  grid = 32 32 32
  stencil order = 5
  estimated absolute RMS force accuracy = 0.00327355
  estimated relative force accuracy = 9.85819e-06
  using double precision FFTs
  3d grid and FFT values/proc = 2475 256
Per MPI rank memory allocation (min/avg/max) = 13.58 | 13.84 | 14.11 Mbytes
Step Temp E_pair E_mol TotEng Press Volume 
   30000    307.54166    -19266.39    547.62969   -16701.664    5676.7277    32435.417 
   40000    304.73935    -19415.35    547.62764   -16869.005     152.9027    32834.535 
Loop time of 13.744 on 128 procs for 10000 steps with 3384 atoms

Performance: 12.573 ns/day, 1.909 hours/ns, 727.592 timesteps/s
99.4% CPU use with 128 MPI tasks x no OpenMP threads

MPI task timing breakdown:
Section |  min time  |  avg time  |  max time  |%varavg| %total
---------------------------------------------------------------
Pair    | 2.3229     | 3.3047     | 4.1675     |  21.2 | 24.04
Bond    | 0.0081468  | 0.011754   | 0.017773   |   1.6 |  0.09
Kspace  | 4.107      | 4.9363     | 5.8967     |  17.0 | 35.92
Neigh   | 0.042243   | 0.044727   | 0.046877   |   0.8 |  0.33
Comm    | 1.0524     | 1.1948     | 1.3577     |   6.3 |  8.69
Output  | 0.00010144 | 0.00010336 | 0.00010644 |   0.0 |  0.00
Modify  | 3.9854     | 4.093      | 4.1719     |   2.1 | 29.78
Other   |            | 0.1585     |            |       |  1.15

Nlocal:    26.4375 ave 36 max 18 min
Histogram: 1 10 14 24 19 29 15 9 5 2
Nghost:    3119.86 ave 3153 max 3085 min
Histogram: 2 2 13 20 20 34 13 14 7 3
Neighs:    10634.6 ave 15546 max 6287 min
Histogram: 2 6 18 25 24 23 14 9 6 1

Total # of neighbors = 1361226
Ave neighs/atom = 402.254
Ave special neighs/atom = 2.12766
Neighbor list builds = 121
Dangerous builds = 0
timestep 0.5
run ${Ninptpre}
run 10000
PPPM initialization ...
  extracting TIP4P info from pair style
  using 12-bit tables for long-range coulomb (../kspace.cpp:321)
  G vector (1/distance) = 0.315058
  grid = 32 32 32
  stencil order = 5
  estimated absolute RMS force accuracy = 0.00331334
  estimated relative force accuracy = 9.97802e-06
  using double precision FFTs
  3d grid and FFT values/proc = 2475 256
Per MPI rank memory allocation (min/avg/max) = 13.58 | 13.89 | 14.11 Mbytes
Step Temp E_pair E_mol TotEng Press Volume 
   40000    304.73935    -19415.35    547.62764   -16869.006     407.0679    32834.535 
   50000    294.93988   -19528.939    547.68037   -17046.815    611.80154    32993.508 
Loop time of 13.4856 on 128 procs for 10000 steps with 3384 atoms

Performance: 32.034 ns/day, 0.749 hours/ns, 741.532 timesteps/s
99.4% CPU use with 128 MPI tasks x no OpenMP threads

MPI task timing breakdown:
Section |  min time  |  avg time  |  max time  |%varavg| %total
---------------------------------------------------------------
Pair    | 2.4943     | 3.2871     | 4.1424     |  18.3 | 24.38
Bond    | 0.0087501  | 0.011765   | 0.016614   |   1.5 |  0.09
Kspace  | 3.8153     | 4.6428     | 5.3858     |  15.1 | 34.43
Neigh   | 0.12581    | 0.13324    | 0.14027    |   1.5 |  0.99
Comm    | 1.0769     | 1.2184     | 1.3746     |   6.2 |  9.03
Output  | 9.5429e-05 | 9.6712e-05 | 9.9406e-05 |   0.0 |  0.00
Modify  | 3.9017     | 4.0098     | 4.0862     |   2.1 | 29.73
Other   |            | 0.1823     |            |       |  1.35

Nlocal:    26.4375 ave 35 max 18 min
Histogram: 3 5 19 10 30 31 8 10 6 6
Nghost:    3089.59 ave 3139 max 3058 min
Histogram: 12 14 23 24 16 15 15 4 3 2
Neighs:    10562.3 ave 14017 max 6243 min
Histogram: 1 5 5 15 22 33 21 11 7 8

Total # of neighbors = 1351975
Ave neighs/atom = 399.52
Ave special neighs/atom = 2.12766
Neighbor list builds = 374
Dangerous builds = 0
reset_timestep 0

# continuing the initialization with the final value of timestep
unfix integrate
fix integrate all rigid/npt/small molecule temp ${Temp} ${Temp} 100.0 iso ${Pres} ${Pres} 1000.0
fix integrate all rigid/npt/small molecule temp 298 ${Temp} 100.0 iso ${Pres} ${Pres} 1000.0
fix integrate all rigid/npt/small molecule temp 298 298 100.0 iso ${Pres} ${Pres} 1000.0
fix integrate all rigid/npt/small molecule temp 298 298 100.0 iso 1 ${Pres} 1000.0
fix integrate all rigid/npt/small molecule temp 298 298 100.0 iso 1 1 1000.0
1110 rigid bodies with 3384 atoms
  1.49042 = max distance from body owner to body atom

timestep ${tstep}
timestep 1
run ${Ninpt}
run 5000000
PPPM initialization ...
  extracting TIP4P info from pair style
  using 12-bit tables for long-range coulomb (../kspace.cpp:321)
  G vector (1/distance) = 0.314944
  grid = 32 32 32
  stencil order = 5
  estimated absolute RMS force accuracy = 0.00332919
  estimated relative force accuracy = 1.00258e-05
  using double precision FFTs
  3d grid and FFT values/proc = 2475 256
Per MPI rank memory allocation (min/avg/max) = 13.83 | 13.95 | 14.11 Mbytes
Step Temp E_pair E_mol TotEng Press Volume 
       0    294.93988   -19528.939    547.68037   -17046.815    1416.9578    32993.508 
   10000      302.887   -19703.309     547.6781   -17169.063   -1626.0797     33284.17 
   20000    302.13134   -19563.059    547.67786   -17033.769    225.39903    32872.341 
   30000    285.98069   -19583.602    547.66325   -17160.255   -731.63609    33094.066 
   40000    296.31724   -19498.779    547.67801   -17007.623    130.55855    33045.105 
   50000    299.12686   -19595.443    547.70523   -17085.832    376.27601     32775.06 
   60000    307.72798   -19593.729    547.67958    -17027.73    677.99236    32991.004 
   70000     294.9127   -19524.058    547.68333   -17042.108   -162.37196    33422.506 
   80000    288.27909   -19622.919    547.68043    -17184.48     135.1621    32537.136 
   90000    300.28528   -19570.992    547.67701   -17053.811   -1229.7109     32989.73 
  100000    294.72536   -19541.923    547.68827   -17061.197    60.629314    32895.189 
  110000    294.25422   -19479.979    547.68215   -17002.349   -249.30903    33341.877 
  120000    297.56078   -19582.122    547.67985   -17082.807   -80.919539    32661.845 
  130000    293.61522   -19619.198    547.68581   -17145.756   -481.56506    33030.446 
  140000    290.96999   -19666.561    547.68276   -17210.471    246.81716    33094.539 
  150000     297.1945   -19539.216    547.64587   -17042.338    54.284282    33121.301 
  160000     302.5818   -19608.961    547.68059   -17076.714    18.301398    33028.587 
  170000    296.19112   -19590.549    547.68335   -17100.215   -222.00056    33083.981 
  180000    306.91376   -19636.212    547.68472   -17075.549   -130.39054    32803.717 
  190000    293.00335   -19622.606    547.67875   -17153.184   -357.72086    32940.335 
  200000    298.82361   -19637.561    547.68194   -17129.962    16.901776    32805.784 
  210000    295.55611   -19602.237    547.68332   -17116.067    691.36275    32598.111 
  220000    299.77207   -19669.336    547.68454   -17155.513   -64.255903    32778.787 
  230000    300.25817   -19567.173    547.67818   -17050.169   -572.69441    33010.115 
  240000    291.00831    -19629.42    547.68891   -17173.073    509.25645     32723.77 
  250000     296.0891   -19630.115    547.68376   -17140.449   -249.25955        32650 
  260000    299.23928   -19566.105    547.67634   -17055.785    965.48442    32303.406 
  270000    297.67202   -19590.838    547.68615   -17090.788    567.66322    32838.244 
  280000    298.02254   -19663.686    547.67724   -17161.346   -542.44692    32612.406 
  290000    312.44931   -19599.027    547.68319   -17002.058   -417.17308    33023.384 
  300000    289.02939   -19631.339    547.70807   -17187.952   -83.925641    32918.234 
  310000    295.20499   -19639.245    547.70439   -17155.357    183.53357    32680.274 
  320000    301.62843   -19602.445    547.68358   -17076.448     37.62987    32818.671 
  330000    302.27361   -19603.782    547.68147   -17073.555   -604.19965    33079.621 
  340000    291.38534   -19642.593    547.68004   -17183.782   -589.03362    32847.391 
  350000    306.05879   -19644.561    547.68345   -17089.507   -1096.9443    32938.924 
  360000    299.72219   -19708.857    547.67805   -17195.368   -455.31424    32992.602 
  370000    308.81313     -19634.2    547.68234   -17061.082    840.44058    32774.772 
  380000    296.27014   -19601.513    547.67899   -17110.665    42.268119      32426.1 
  390000    294.11936   -19647.423    547.68044    -17170.68   -951.12961    32996.367 
  400000    299.46654   -19582.997    547.68255   -17071.181   -616.15885    33104.764 
  410000    293.06659   -19569.607    547.67629   -17099.773   -115.55048    33014.365 
  420000    302.94668   -19618.432    547.67912   -17083.794   -208.92491    33142.925 
  430000    305.59658    -19631.94    547.68067    -17079.92    442.26664    32954.459 
  440000     299.2354   -19613.023    547.68344   -17102.722      407.645    32446.586 
  450000    292.92715   -19579.314    547.69438   -17110.376    156.97254    32945.981 
  460000     305.5446   -19709.013    547.68384    -17157.33    714.72303    32676.336 
  470000    295.67399   -19682.276    547.67913   -17195.337     152.9913    32430.316 
  480000    292.01497   -19560.286    547.68591    -17097.34   -275.76878    33256.855 
  490000    302.87559   -19697.762    547.67967    -17163.59    1345.8686    32505.925 
  500000    298.67444    -19646.78    547.68007   -17140.161   -93.678104    32534.169 
  510000    297.45345    -19682.19    547.68236   -17183.577   -27.196378    32925.628 
  520000    297.16946    -19716.82    547.67765   -17220.074   -273.89172    33036.815 
  530000    300.47626     -19668.2    547.68112   -17149.762   -237.01464    32764.659 
  540000    294.01759   -19582.249    547.67744   -17106.176   -111.15957    32662.019 
  550000    294.52279   -19538.907    547.67783    -17059.52    127.81117    32888.943 
  560000     293.5316   -19575.852    547.68907   -17102.955    268.20616    33342.267 
  570000    289.88204   -19661.255    547.68248   -17212.301   -301.89921    32834.972 
  580000    300.13562   -19581.668    547.67885   -17065.467   -213.34093     32891.99 
  590000    290.73245   -19632.169    547.68073   -17177.639    206.17039    32753.523 
  600000    293.45633   -19708.766    547.69711   -17236.355   -10.530346    32713.444 
  610000    301.03929   -19595.228    547.66509   -17073.113   -262.46703    32691.095 
  620000      298.521   -19663.994    547.67842   -17158.383    -364.7337    33052.039 
  630000    299.37341   -19591.749    547.67578    -17080.55    354.05282    32896.477 
  640000    302.25229   -19563.176    547.68064   -17033.091   -65.395288    32798.855 
  650000    293.97603   -19701.807    547.68757   -17225.996      833.879    32694.383 
  660000    295.05245   -19640.424    547.68401   -17157.557     402.9662    32919.875 
  670000    298.92175   -19639.067    547.67588    -17130.83   -67.855614    32723.862 
  680000    306.59118   -19723.122    547.68153   -17164.578   -227.19274    32723.019 
  690000    292.74167   -19644.197    547.58971    -17176.58    4.6645506    33015.641 
  700000    293.40134   -19591.135    547.67662   -17119.105    713.77106     32337.83 
  710000    293.41022   -19740.152    547.68857   -17268.052      1169.99     32733.58 
  720000    296.81291   -19625.379    547.68105   -17130.969    436.55187    33159.532 
  730000    294.70138    -19585.56    547.68363   -17104.996    570.50912    33087.725 
  740000     293.6513   -19660.724    547.68187   -17187.049   -185.27325    33336.039 
  750000    300.34483   -19655.394    547.69534   -17137.804    604.42672     32702.06 
  760000    298.95183   -19571.869    547.64769   -17063.464    731.83474    32811.485 
  770000     299.0675   -19616.249    547.67795   -17107.055   -877.13442    32943.858 
  780000    295.87314   -19635.913    547.67863   -17147.669   -376.68173     32889.18 
  790000    300.51154   -19551.176    547.68161   -17032.506   -443.98116    32903.668 
  800000    295.28565   -19592.877    547.67886   -17108.486   -116.70135    32882.991 
  810000    304.02422   -19640.605    547.68221   -17098.896    829.18172    32710.871 
  820000    297.94435   -19622.887    547.68974   -17121.047    842.70071    32831.902 
  830000     295.7848    -19662.68    547.68497   -17175.009   -671.76287    33178.265 
  840000     301.6468   -19634.707    547.67997   -17108.594    201.10162    32995.865 
  850000    308.41641   -19580.536    547.67891   -17010.023   -378.63862    33046.991 
  860000    305.32971   -19489.341    547.68271   -16939.069   -44.785505    33224.559 
  870000    303.10153   -19704.863    547.71735    -17169.17   -117.84197    32672.647 
  880000    301.32669   -19610.203     547.6781   -17086.191   -424.32743    33093.171 
  890000    299.46549   -19618.955    547.67721   -17107.151   -1418.6791     33126.03 
  900000    290.25035   -19598.737     547.6773   -17147.373    133.72955     33131.84 
  910000    298.78522    -19629.44    547.68328   -17122.091   -302.80897     32703.83 
  920000    290.11773   -19633.209    547.68071   -17182.711   -888.93003    33111.797 
  930000    301.65355   -19726.118    547.68076   -17199.959   -97.954993    32952.427 
  940000    294.83117   -19671.992       547.68   -17190.581     830.5709    32777.764 
  950000    288.52488   -19599.729    547.68573   -17159.673    444.08423     32819.72 
  960000    304.15261   -19553.407    547.67917   -17010.859    793.46608    32570.556 
  970000    294.62739   -19624.133    547.68038   -17144.058   -569.03775    32973.008 
  980000    292.51289   -19689.982    547.68242   -17223.774    490.00452    32911.195 
  990000     296.7429   -19655.198    547.68424   -17161.243   -207.82475     32492.38 
 1000000    304.17398   -19540.927    547.68048   -16998.238     366.6437    33159.181 
 1010000    297.25017   -19658.064    547.68417   -17160.783    303.36883    32686.282 
 1020000    296.78817   -19666.463    547.67755   -17172.219     -453.243    33036.864 
 1030000    298.02458   -19539.015     547.6814   -17036.658   -508.97958    33309.459 
 1040000    300.99165   -19702.053    547.68083   -17180.235    232.69466    32572.086 
 1050000     304.4228   -19661.374    547.68679   -17117.047    129.59229    32951.714 
 1060000    295.01227   -19645.339    547.67826   -17162.742   -514.14277    32626.564 
 1070000    298.84883   -19707.088     547.6984   -17199.307    468.05584    32812.533 
 1080000    299.11104   -19632.154    547.68118   -17122.671   -237.14478    32751.296 
 1090000    293.79137   -19607.912    547.68186   -17133.318    -232.0357    32498.151 
 1100000    284.48469   -19616.199    547.68268   -17202.645   -727.06583    33114.789 
 1110000    303.86218    -19704.52    547.67797   -17163.878    168.92668    32656.119 
 1120000    293.42547   -19634.943    547.66256   -17162.769   -242.29134    33061.794 
 1130000    301.67372   -19653.428     547.6797   -17127.138    307.09635    32457.201 
 1140000    300.81689   -19624.381     547.6807   -17103.709  -0.79688336     32804.46 
 1150000    297.32366   -19620.805    547.68163   -17123.044    -139.7589    33021.064 
 1160000    297.69887   -19693.522    547.68323   -17193.298    346.40131    32566.505 
 1170000    302.44708   -19616.545    547.68884   -17085.174   -611.80665    33040.751 
 1180000    299.40155   -19620.576    547.68348   -17109.185   -419.96459    32999.838 
 1190000     307.5252    -19631.02    547.68338   -17066.347   -54.935453    32789.388 
 1200000    297.69501   -19563.856    547.67824   -17063.663    1.8695573    33069.009 
 1210000    298.48663   -19676.912    547.68434   -17171.521    104.51954    32829.802 
 1220000    304.27176   -19590.211    547.67594   -17046.884    20.423129    33114.921 
 1230000    295.97476   -19541.411    547.67776   -17052.502   -168.38965    32968.078 
 1240000     304.0904   -19621.655    547.68345   -17079.511   -318.04619    32464.702 
 1250000    300.28539   -19696.898    547.65316    -17179.74    264.42898    32895.371 
 1260000    298.44591   -19623.615    547.67658   -17118.499    179.81251    33140.553 
 1270000    289.98537   -19596.932    547.68131   -17147.301   -100.82986    33189.393 
 1280000    298.35812   -19673.799    547.68122   -17169.253    689.74915    32647.643 
 1290000    297.45103   -19637.631    547.67999   -17139.036    1246.7957    33126.038 
 1300000    292.35168   -19623.442    547.67577   -17158.297   -83.150287    32474.168 
 1310000    303.55491   -19668.181    547.66289    -17129.57   -626.02602     33095.32 
 1320000    292.95364   -19659.132    547.67216   -17190.042    49.280566    32842.535 
 1330000    304.83598    -19641.52    547.68682   -17094.482    152.71525    32627.201 
 1340000    304.77408    -19542.48    547.68688   -16995.848    960.57445    32784.659 
 1350000    293.10633   -19537.356    547.68058   -17067.257   -41.899077    32768.817 
 1360000    296.81954   -19530.305    547.67968   -17035.852   -413.43801    33024.595 
 1370000    298.73377   -19662.407    547.70312   -17155.376   -302.51405    32898.808 
 1380000    303.66271   -19672.436    547.68335   -17133.097   -255.78728    32972.612 
 1390000    292.85442    -19667.64    547.68422   -17199.189   -302.56846    32992.281 
 1400000    300.38593   -19540.514    547.68045    -17022.67   -629.04509    33125.549 
 1410000    309.56552     -19556.7    547.67705   -16978.652     668.5556     32793.55 
 1420000    299.83306   -19668.725     547.6781   -17154.509    300.31809    32937.028 
 1430000    299.03407    -19538.09    547.67983   -17029.112    -429.0242    33551.656 
 1440000    290.30892   -19634.897    547.67855   -17183.147    746.58776    33009.163 
 1450000     300.0884   -19631.659    547.67353   -17115.773    385.30019    32772.364 
 1460000      299.081   -19635.234    547.69268   -17125.936    -551.0978     32997.68 
 1470000    300.18764    -19639.94    547.68045   -17123.396    147.68497    33076.179 
 1480000    301.65897   -19611.604    547.68096    -17085.41    275.74747    33090.289 
 1490000    298.36971   -19614.525    547.68653   -17109.899    148.98172    32909.933 
 1500000    300.75231   -19617.703    547.69313   -17097.443    80.832241    32513.074 
 1510000    308.10898   -19677.662    547.68529   -17109.159   -161.39274    33312.348 
 1520000    288.63469   -19594.947    547.68522   -17154.171   -267.65018    33199.589 
 1530000    297.39964   -19596.534    547.68757   -17098.269   -187.26328     32850.59 
 1540000     301.0876   -19643.544    547.68488   -17121.093   -105.30639    32467.774 
 1550000    298.68487   -19596.943     547.6747   -17090.261    75.714677    32779.748 
 1560000    295.27499   -19603.604    547.65434   -17119.308    695.07446    33021.794 
 1570000    305.64914   -19633.516    547.68178    -17081.15    327.25174     32644.18 
 1580000     293.8831    -19714.38     547.6794   -17239.187    4.9642865    32611.191 
 1590000    293.31109   -19583.175    547.67671   -17111.736    164.65537    33082.047 
 1600000    302.85487   -19610.004    547.68146   -17075.965    321.04742    32886.448 
 1610000    306.63949   -19730.158    547.68139   -17171.297   -425.19442    32940.981 
 1620000    298.46923   -19562.481    547.67805   -17057.211    148.60101    33024.048 
 1630000     295.4469   -19588.794    547.67123   -17103.353    434.52822    32938.164 
 1640000    295.80348   -19577.793    547.68016   -17090.004   -611.38219    32851.736 
 1650000    301.07715   -19590.954    547.67493   -17068.582    410.27574    32912.033 
 1660000     304.9759   -19549.713    547.68038   -17001.764    523.78081    32878.349 
 1670000    293.94043   -19689.215    547.68065   -17213.645    48.864424    33102.399 
 1680000    297.88725    -19710.04    547.68002   -17208.585    444.26603     32456.99 
 1690000    304.88163   -19602.553    547.68623   -17055.216   -133.16555    32618.609 
 1700000    301.32683   -19661.442    547.67988   -17137.427    108.15636    33036.869 
 1710000    311.03051   -19589.677    547.69188   -17002.006   -406.04995    32752.397 
 1720000    289.04361   -19627.174    547.66752   -17183.734    843.00535    33108.622 
 1730000     302.4796   -19576.268    547.67752   -17044.695    629.44093    32682.962 
 1740000    309.57289   -19587.202    547.67742   -17009.106   -120.47019    33017.708 
 1750000    299.37414   -19564.925    547.66709    -17053.73   -504.48327    33052.918 
 1760000    307.02901   -19535.941    547.67426   -16974.532     337.5819    33280.437 
 1770000    304.15585   -19626.406    547.65202   -17083.864    109.34584    33137.325 
 1780000    292.63199   -19658.445    547.68075   -17191.457     9.282595    32653.543 
 1790000    295.67092   -19654.647    547.68131   -17167.727   -51.983853    32679.322 
 1800000    304.84119   -19633.322     547.6882   -17086.248   -132.37171    33241.584 
 1810000    299.50801   -19608.175    547.67934    -17096.09    250.71871      33056.5 
 1820000    290.44324   -19651.138    547.67737   -17198.508   -406.38278    32914.622 
 1830000    296.77124   -19619.389    547.67573   -17125.257    217.28943    32812.578 
 1840000    300.92517   -19623.419    547.68056   -17102.038   -733.74114    33081.308 
 1850000    291.82284   -19525.511    547.69824   -17063.813   -549.26617    32824.852 
 1860000    301.89621   -19668.227     547.6852   -17140.472   -604.12414    32974.755 
 1870000    286.64844   -19585.191    547.68182   -17157.447    -438.8193    32902.161 
 1880000     295.6923   -19616.248    547.68174   -17129.187    -141.8071    32776.352 
 1890000    297.84841   -19657.928    547.68021   -17156.727   -90.222524    33045.041 
 1900000    308.37257   -19679.148    547.67808   -17108.923   -22.505261    32726.884 
 1910000    303.10482   -19696.585     547.6807   -17160.908   -780.46181    32983.424 
 1920000    301.58295   -19601.867    547.67753   -17076.175   -74.703998    33220.888 
 1930000     293.9687    -19633.55    547.66397   -17157.811   -914.94777    33009.508 
 1940000    280.66612   -19713.367    547.67473   -17324.867     425.7392    33125.574 
 1950000    294.53507   -19685.312    547.68008   -17205.842   -66.297316    33135.067 
 1960000    295.62759   -19582.326    547.69046   -17095.681   -169.26486    33191.115 
 1970000      290.315   -19689.832     547.6837   -17238.037    203.77542     32643.09 
 1980000    292.73079   -19595.623     547.6776    -17127.99   -309.50838    32729.355 
 1990000    298.16796   -19596.208    547.65517   -17092.936   -276.53365    33214.588 
 2000000    289.71302   -19595.298    547.68803   -17147.447    143.29373    32943.312 
 2010000     305.9055   -19634.606    547.68028    -17080.56    984.11929    33174.795 
 2020000    303.70363   -19603.957    547.67642   -17064.357    609.74359    33091.572 
 2030000    296.38844   -19628.534    547.68818   -17136.901    590.82362    33182.023 
 2040000    298.62619   -19531.904    547.67932   -17025.603    570.07846     32986.51 
 2050000      291.454   -19548.911    547.67966    -17089.65   -27.647876    32940.144 
 2060000    301.05919   -19607.261    547.67945   -17085.002   -572.90503    32844.089 
 2070000    302.05563   -19612.299    547.68294   -17083.501   -165.43821    32939.642 
 2080000    295.28922   -19568.967    547.67825   -17084.553    96.831612    32959.209 
 2090000    294.05682    -19585.98    547.68081   -17109.646   -301.42365    32730.666 
 2100000     292.1184   -19636.731    547.68384   -17173.109   -293.58706    33124.198 
 2110000    294.16184   -19604.015    547.68041   -17126.993    64.223408    33246.265 
 2120000    290.40284   -19562.753    547.68536   -17110.381    -91.08832    32945.633 
 2130000    294.88771   -19751.489    547.69318   -17269.693   -9.2824233    32906.069 
 2140000    285.95098   -19654.952    547.68371    -17231.78      504.467    33073.188 
 2150000    294.72348   -19668.279    547.68198   -17187.572    696.60719    32537.271 
 2160000    297.75733   -19577.707    547.67139   -17077.112     310.4019    32260.636 
 2170000    298.04995   -19623.329    547.69437   -17120.792   -193.49216     33132.63 
 2180000    307.42657   -19669.917    547.67967   -17105.895    80.385255    32658.252 
 2190000    293.40591   -19624.712    547.67616   -17152.652    493.55446     33006.07 
 2200000    304.77681   -19615.244     547.6847   -17068.596    479.90618    32948.931 
 2210000      296.655   -19596.494    547.67641   -17103.124    23.714552    33206.025 
 2220000    294.70169   -19576.012    547.67538   -17095.455   -148.09465    33021.868 
 2230000    291.81087   -19685.156    547.71709   -17223.517    28.558794    32620.739 
 2240000    302.86942   -19535.372    547.68537   -17001.234    224.56803    33254.395 
 2250000    298.01143   -19589.395    547.68039   -17087.125   -492.64864    33144.589 
 2260000    289.74101   -19639.732    547.68153   -17191.704    111.04801    32948.542 
 2270000     302.5409   -19714.167    547.67875   -17182.191   -392.45452    32946.127 
 2280000    297.19523   -19674.379     547.6745   -17177.468    66.455498    32566.617 
 2290000     303.7592   -19516.837    547.67396   -16976.875   -85.594207    32779.526 
 2300000    298.00192   -19675.841    547.68109   -17173.632    497.88379    32698.276 
 2310000    290.77191   -19633.878    547.68418   -17179.086    -711.1002     33072.51 
 2320000    297.21606   -19598.869    547.68287   -17101.813    587.34089    32849.863 
 2330000    301.47079   -19654.098    547.65148   -17129.167    40.025319    32952.699 
 2340000    301.57822    -19575.86    547.67826   -17050.198   -402.14182    33185.898 
 2350000    298.86823   -19617.855    547.64988   -17109.996   -690.08092    33083.672 
 2360000    297.23312   -19563.334    547.68242   -17066.166    532.01853    32963.911 
 2370000    296.57186   -19643.489    547.67798   -17150.663    612.49231    33013.687 
 2380000    300.10941   -19674.753    547.67733   -17158.725    541.68808    32961.305 
 2390000    293.36885   -19766.963    547.67436   -17295.149   -640.43841    32346.959 
 2400000    302.74084   -19635.015    547.68028   -17101.725   -238.32068    32904.626 
 2410000    298.69485   -19541.957    547.67588   -17035.209   -775.40104    32943.859 
 2420000    295.99803   -19524.377    547.67966   -17035.312      161.129    33185.064 
 2430000    298.45647   -19604.079     547.6805    -17098.89    910.60855    32582.749 
 2440000    302.37962   -19624.879    547.67643   -17093.962   -180.41854    32695.503 
 2450000    293.82322   -19658.385     547.6827   -17183.582   -316.19581    32547.989 
 2460000    300.67701   -19658.297    547.68119   -17138.543   -115.52155    32800.355 
 2470000    297.05083    -19681.15    547.68068    -17185.18   -234.24587    32627.115 
 2480000    291.94454   -19582.394     547.6792   -17119.916   -197.35429    33159.843 
 2490000    298.51082   -19634.266    547.69256   -17128.707    269.17176    32404.687 
 2500000    290.38487   -19616.582    547.67578   -17164.337   -754.61848    33168.277 
 2510000    299.85439   -19688.194    547.67856   -17173.838   -396.91251    32974.372 
 2520000    291.78644    -19639.84    547.68767   -17178.391   -40.334801    32900.794 
 2530000    299.82639   -19655.389    547.68889   -17141.206   -118.16493    33129.978 
 2540000    305.87694   -19620.531    547.67993   -17066.673   -469.02754    32923.311 
 2550000    290.03162   -19596.162    547.68034    -17146.23   -476.43181    33236.873 
 2560000    291.98696    -19663.59     547.6826    -17200.83   -73.471432    32721.842 
 2570000    295.28496    -19569.13     547.6714   -17084.751    1118.4347    33083.304 
 2580000    291.57343   -19547.334     547.6805   -17087.289    -513.2302    33093.091 
 2590000    289.82819   -19596.837    547.69029   -17148.229     480.1414    32515.583 
 2600000    300.64421   -19666.525    547.68044   -17146.987    438.45853    32733.859 
 2610000    298.16647   -19668.672    547.69687   -17165.368    1.6751769    32698.012 
 2620000    292.77607   -19560.598    547.68314   -17092.662   -341.62655    32906.963 
 2630000    289.12144     -19728.2    547.68719   -17284.231    487.19377    32594.233 
 2640000    291.54507   -19655.735    547.68117   -17195.875   -773.56487    32828.063 
 2650000    299.62436   -19582.151    547.73419   -17069.248    451.67099     33122.84 
 2660000    299.35782   -19667.152    547.66498   -17156.067   -476.21107    32731.568 
 2670000    301.23998   -19624.787     547.6882   -17101.333   -259.99985    33036.091 
 2680000    301.03269   -19636.078     547.6842   -17113.988    627.53116    32690.816 
 2690000    290.64757   -19657.339     547.6813   -17203.366    -356.3933     33041.74 
 2700000    303.66931   -19564.191    547.68492   -17024.807    362.74088    32753.858 
 2710000    287.39152   -19575.371    547.68227   -17142.752   -470.88142     32948.17 
 2720000    295.32763   -19574.225    547.67964   -17089.558   -1127.0196    33345.321 
 2730000    304.71751   -19589.355    547.69187    -17043.09    106.56668    32990.138 
 2740000    291.86659   -19589.054    547.68411   -17127.083    153.68654    32952.098 
 2750000    292.05068   -19683.112    547.67899   -17219.938   -683.99933    33204.623 
 2760000    307.56522    -19653.67    547.68347   -17088.735    259.83209    33189.726 
 2770000    296.38351   -19599.269     547.6816   -17107.674   -368.77774    33115.216 
 2780000    297.96268    -19586.67    547.68355   -17084.716    46.171995    32788.782 
 2790000     301.5689   -19526.462    547.68204   -17000.857    951.10634    32855.586 
 2800000    297.56953   -19669.475    547.68184   -17170.102   -92.506472    33064.814 
 2810000    291.91865   -19625.573    547.68167   -17163.262   -359.53042    33042.538 
 2820000    297.60463    -19598.18    547.67911   -17098.579   -553.95585    33055.625 
 2830000    301.61044   -19672.345    547.68251   -17146.468    79.953133    33237.463 
 2840000    295.12908   -19546.105    547.67873   -17062.741   -136.98796    33394.833 
 2850000      305.856   -19555.426    547.68274   -17001.702    481.09336    32753.197 
 2860000    299.17712   -19643.754    547.67555   -17133.843    151.50827    32653.363 
 2870000    295.34764   -19641.518    547.67797   -17156.722   -743.84962    33123.626 
 2880000    292.12676   -19583.552    547.67801    -17119.88   -210.46361     33034.64 
 2890000    298.38934   -19650.723    547.67834   -17145.975    303.81347    33120.162 
 2900000    310.21939   -19694.127    547.67883   -17111.789    136.70689    33221.825 
 2910000    297.79413   -19645.576    547.72066   -17144.691    418.94145    33096.393 
 2920000    301.26191   -19560.605    547.68227   -17037.014   -8.1075795    33050.735 
 2930000    299.39278   -19670.516    547.68017   -17159.185   -535.00236    33148.396 
 2940000    297.26434   -19627.429    547.68165   -17130.057   -221.52529    33192.791 
 2950000    295.15209    -19534.11    547.68327    -17050.59    294.59044    32722.076 
 2960000    298.12362   -19632.563    547.67766    -17129.56   -722.03059    32875.266 
 2970000    300.81015   -19639.246    547.74457   -17118.555    321.75421    33127.939 
 2980000    298.27404   -19586.144    547.68115    -17082.15   -176.54356    32664.136 
 2990000    296.26853   -19610.998    547.67679   -17120.163    496.35809    33191.029 
 3000000    293.11184   -19609.888    547.68088   -17139.752   -190.49236    33185.793 
 3010000    301.33563   -19599.762    547.68304   -17075.686   -737.61649    33386.265 
 3020000    292.88047   -19602.556    547.67822    -17133.94   -375.13753    32683.111 
 3030000    306.16826   -19559.951    547.68026   -17004.182   -486.16639    33052.393 
 3040000    298.19268   -19609.422    547.68508   -17105.958    706.28698    32591.503 
 3050000    297.87385    -19617.86    547.68723   -17116.485    85.754823     32742.35 
 3060000    299.99832   -19713.054    547.67667   -17197.755    359.99954    32627.621 
 3070000    297.58708   -19580.515    547.68879    -17081.02   -120.02409    33092.861 
 3080000    298.73479   -19539.667    547.67586   -17032.656   -236.18245    33070.854 
 3090000    297.96894   -19653.852    547.67882   -17151.861    875.63911    32885.578 
 3100000    305.06092   -19697.763    547.68308   -17149.254   -147.18431    32877.872 
 3110000    300.62391   -19656.505    547.68385   -17137.096   -256.45873    32761.784 
 3120000    301.69714   -19578.635    547.66597   -17052.205   -291.29428    32487.481 
 3130000      307.877   -19670.463    547.72154   -17103.445   -41.516847    32796.886 
 3140000    300.15206   -19614.309    547.67756   -17098.002    289.18978    32882.724 
 3150000    290.33098   -19664.597    547.67919   -17212.702    10.295233      32703.9 
 3160000    300.83596   -19589.782     547.6841   -17068.982   -205.65381    32928.724 
 3170000    309.14429   -19649.956    547.65175   -17074.696   -358.37974    32928.384 
 3180000    296.97242   -19674.219    547.68353    -17178.76    621.51476    32962.216 
 3190000    294.71489   -19676.544    547.68979   -17195.886   -523.12549    32693.529 
 3200000    290.31653   -19598.931    547.67567   -17147.134   -96.052077    32970.166 
 3210000    293.47642   -19582.913    547.67703    -17110.39     367.6498    32798.921 
 3220000     288.6768   -19580.331    547.64361   -17139.321    752.17293    32657.835 
 3230000    291.59667   -19577.213    547.68258   -17117.013   -818.35173     32763.36 
 3240000    301.69015   -19484.112    547.63062   -16957.763    166.96661    32969.195 
 3250000    303.90377   -19630.647    547.67822   -17089.732   -883.35764    33267.148 
 3260000    300.28577   -19625.092    547.68146   -17107.903   -288.75779    32457.079 
 3270000    286.19696   -19610.016    547.68216   -17185.232   -800.06094    33564.379 
 3280000    303.86149   -19648.585    547.68277   -17107.943    140.35855    32972.286 
 3290000    301.52677   -19635.482    547.67444   -17110.161   -42.845373    33167.076 
 3300000    284.84794   -19756.492    547.67886    -17340.56    201.80356    32518.018 
 3310000    302.28573   -19589.949    547.67974   -17059.645    530.00885    32652.907 
 3320000    296.25838   -19644.476    547.68795   -17153.696   -127.17482    32957.121 
 3330000    298.50626   -19621.557    547.68243   -17116.039   -420.46627    33027.181 
 3340000    297.58862   -19602.766    547.68058   -17103.268   -517.07571    32929.107 
 3350000    302.73119   -19577.156    547.67869   -17043.932     56.29093    33185.273 
 3360000    298.14546   -19652.664     547.6938   -17149.501   -1261.2524    33007.842 
 3370000     282.9152   -19616.382     547.6821   -17213.123   -190.17941    32902.153 
 3380000    290.41323   -19639.496    547.66082    -17187.08   -117.66735    32729.822 
 3390000    305.31148   -19628.388    547.67675   -17078.242   -782.45725    33112.479 
 3400000    295.84797   -19608.862    547.68316   -17120.778    1014.6443    32355.178 
 3410000    305.15534   -19555.697    547.68099    -17006.57   -558.04622    33118.145 
 3420000    287.58475   -19479.231    547.67784    -17045.35   -782.20692    32882.277 
 3430000    297.52112   -19564.956    547.67887   -17065.903    123.68049    32928.405 
 3440000    293.77002   -19647.222    547.69511   -17172.755   -177.37628    33077.536 
 3450000    295.73321   -19619.525    547.66788   -17132.209    259.72143    33073.165 
 3460000    301.80739   -19522.502    547.69151   -16995.324    89.875291    33550.458 
 3470000    304.11062   -19671.481    547.67878   -17129.209   -766.71792    33141.727 
 3480000    296.60338    -19602.43    547.66109   -17109.414   -1030.1386    33267.094 
 3490000    297.23144    -19660.75    547.68334   -17163.592    163.14917    32839.497 
 3500000    300.01235   -19597.837    547.67791   -17082.445   -589.83462    33175.324 
 3510000    283.02972   -19640.842     547.6843   -17236.829   -666.31336    32897.988 
 3520000    294.76705   -19589.581    547.66482   -17108.605    135.79741    32922.038 
 3530000    308.92499   -19651.889    547.68577   -17078.034   -197.87872    32790.571 
 3540000    300.27448   -19571.323    547.68241   -17054.208   -569.61313    33141.252 
 3550000    303.88324   -19586.946    547.67341   -17046.171    270.10972    33116.257 
 3560000    297.89309   -19537.449    547.67828   -17035.957   -910.92747    32855.162 
 3570000    297.75819   -19641.342     547.6813   -17140.732   -559.96853    33214.529 
 3580000    294.68266    -19672.38    547.68662   -17191.936    -1039.201    32749.182 
 3590000    302.14102   -19626.082    547.69664    -17096.71    690.45636    33228.107 
 3600000     307.5562   -19583.503    547.68006   -17018.631    69.604625     32645.51 
 3610000    298.01483   -19544.553    547.68235   -17042.259   -418.10182    32885.935 
 3620000    291.17399    -19626.01    547.68001   -17168.585    530.70572    32488.267 
 3630000    287.40631   -19556.664    547.71453   -17123.916   -550.63893    33189.509 
 3640000    294.52713   -19648.203    547.68562    -17168.78   -423.83669     33169.84 
 3650000     296.6894   -19622.143    547.67904   -17128.545    79.034834    32976.206 
 3660000    293.33288    -19581.68    547.67597   -17110.099   -923.04833    33079.514 
 3670000    297.68402   -19615.281    547.67861    -17115.16   -270.65733    33174.122 
 3680000    296.21142   -19643.767    547.67472   -17153.308   -65.039599     33344.11 
 3690000     300.4477   -19600.548    547.68031   -17082.298   -334.12198    32816.104 
 3700000    292.40948   -19675.008     547.6863   -17209.474     -97.3331    32717.647 
 3710000     290.4578   -19651.061    547.68565   -17198.328    756.20273     32703.83 
 3720000    300.06807   -19650.999    547.67903   -17135.241   -259.19586    33204.853 
 3730000    302.37902   -19666.737    547.67932   -17135.821    824.19917    32696.467 
 3740000    287.74645   -19577.202    547.68322   -17142.254    350.72545    32852.051 
 3750000    300.92674   -19671.536    547.68302   -17150.142    129.69939    32537.462 
 3760000    299.74874   -19619.022    547.68419   -17105.353    428.79713     32868.98 
 3770000    294.22219   -19654.605    547.68198   -17177.185   -391.99844    32845.342 
 3780000     295.5905   -19628.882    547.68629   -17142.484    78.242068    32570.733 
 3790000    294.36658   -19513.409    547.68276   -17035.042   -207.64931    33099.729 
 3800000    294.29997   -19687.103    547.68252   -17209.173    802.74234    32838.985 
 3810000    298.74566   -19607.127    547.68323   -17100.038    733.45202    32966.468 
 3820000    303.32637   -19532.767    547.68726    -16995.63   -659.18922     33199.62 
 3830000    308.93895   -19529.592    547.68527   -16955.645   -29.386368    33175.653 
 3840000    289.16629   -19632.125    547.68309   -17187.865    560.25345    32952.548 
 3850000    290.78274   -19652.574     547.6832   -17197.712    548.98511    32890.629 
 3860000    287.56002   -19660.795    547.68037   -17227.073    234.99925    32599.939 
 3870000    303.10788   -19520.394    547.68126   -16984.696    231.02337    32948.784 
 3880000    298.96473   -19605.647    547.67405   -17097.131    471.50325    32852.428 
 3890000    301.00264   -19597.847     547.6749   -17075.963   -110.49554     33145.67 
 3900000    297.60999   -19693.811    547.68404    -17194.17    301.31224    32566.013 
 3910000    287.01368   -19593.346     547.6781   -17163.209   -515.91935    32946.737 
 3920000    302.81427   -19695.245    547.67817   -17161.476   -1100.2078    33303.924 
 3930000    291.75355     -19631.1    547.67783   -17169.876    209.01917    32660.103 
 3940000    302.39659     -19631.9    547.68021   -17100.868   -229.04627    32780.603 
 3950000    298.59652   -19629.981     547.6795   -17123.874    926.87254    32570.544 
 3960000    295.17578   -19657.659    547.67629   -17173.991   -351.18267    33168.156 
 3970000    306.16379   -19712.712     547.6804   -17156.972   -221.09004    32930.142 
 3980000     303.4118   -19567.792     547.6854   -17030.097   -901.75162     32912.24 
 3990000    298.89607   -19585.213    547.68159   -17077.139   -783.43626    32982.804 
 4000000    294.04435   -19658.194    547.67898   -17181.944   -968.45008    32692.065 
 4010000     294.2921   -19676.531    547.68089   -17198.654   -895.35911    32863.374 
 4020000    297.48687   -19682.241    547.68364   -17183.408    297.19826    32833.323 
 4030000     298.3665   -19692.289    547.67738   -17187.693    941.45714    32961.292 
 4040000    290.15132   -19642.789    547.68114    -17192.07   -758.91695    33188.404 
 4050000    291.59378   -19700.612     547.6827   -17240.431    948.30207    32740.167 
 4060000    296.19989   -19632.219    547.67797   -17141.833    -47.44543    32359.933 
 4070000    297.20146   -19496.561     547.6803   -16999.603   -314.62348    33124.729 
 4080000    300.71144    -19530.99    547.67867   -17011.013   -188.09824    33122.765 
 4090000    302.64308   -19579.742    547.68086   -17047.093   -462.19863    32894.819 
 4100000    301.64552   -19575.979    547.68393    -17049.87     162.2788    32582.825 
 4110000    301.66389    -19588.13     547.6797   -17061.904    675.70498    32646.997 
 4120000    295.48571   -19635.551    547.67715    -17149.85    286.86864    32963.439 
 4130000    297.29432   -19601.389    547.68766   -17103.814   -919.64751    33008.981 
 4140000    291.36739   -19533.643    547.68691   -17074.943    152.65678    33573.424 
 4150000    300.65827   -19580.096     547.6702   -17060.476    995.48934    32780.346 
 4160000     295.4857   -19767.505    547.68668   -17281.794    468.76602    32630.477 
 4170000    301.05127   -19539.523    547.74694   -17017.248     60.97354    32882.453 
 4180000     298.4975   -19757.385    547.66166   -17251.946   -232.72531    32794.619 
 4190000    303.10046    -19586.24    547.68273    -17050.59   -195.36345    33000.314 
 4200000    302.69158   -19633.925    547.67775   -17100.961     451.5785    32436.375 
 4210000    297.98236   -19607.558    547.67855    -17105.48    4.8520541    32869.957 
 4220000    298.28116   -19648.644    547.68062   -17144.604   -408.71801    32587.519 
 4230000    304.90669   -19611.604    547.68114   -17064.108    841.79251    32907.162 
 4240000    290.43048   -19604.468    547.66692   -17151.933   -627.56387    32738.357 
 4250000    291.03418   -19592.888    547.68281   -17136.378   -812.80888    32945.649 
 4260000    294.59613   -19630.732    547.68026   -17150.862    492.23439    33143.944 
 4270000    302.01222   -19662.308    547.69068   -17133.787   -676.86873    33118.417 
 4280000    308.78244   -19615.841    547.68421   -17042.922   -186.97575    32816.277 
 4290000    300.52812    -19630.54    547.68275   -17111.761    506.58751    32767.632 
 4300000    289.64999   -19546.833    547.68218   -17099.402   -429.02136    33116.529 
 4310000    297.37009   -19634.714    547.69479   -17136.636   -513.16014    33243.861 
 4320000    300.05735   -19682.361    547.67881   -17166.673   -457.10646    33275.707 
 4330000    297.51778   -19707.677    547.68106   -17208.644   -942.96771    33181.938 
 4340000    303.30465   -19649.552    547.68329   -17112.561   -113.48902    32762.042 
 4350000    297.47839   -19617.787    547.68417   -17119.008    788.43269    32754.977 
 4360000    300.08783   -19614.763    547.68785   -17098.866   -903.86393    32900.853 
 4370000    295.29021   -19648.857    547.67805   -17164.437    722.42627    32767.988 
 4380000    300.80482   -19576.486    547.67836   -17055.896    -97.70353    32654.823 
 4390000    311.46387   -19605.191     547.6797    -17014.69    0.3220405    32921.377 
 4400000    298.02035   -19558.784    547.68199   -17056.453   -214.11892    33063.005 
 4410000    299.41542   -19670.917    547.68189   -17159.437   -162.77793    32941.993 
 4420000    299.19244   -19608.855    547.72054   -17098.798    391.37369    32749.058 
 4430000     299.0494   -19623.318    547.67631   -17114.243   -705.86533    32938.143 
 4440000    291.72392   -19494.007    547.68381   -17032.972    343.90605    33025.455 
 4450000    296.83741   -19619.719    547.66832   -17125.161   -616.16494    33115.762 
 4460000    295.90904   -19633.829    547.68774    -17145.34    328.39263    33083.723 
 4470000    303.86999   -19683.376     547.6767   -17142.685   -423.56821    33451.178 
 4480000    299.25603   -19558.999    547.68323   -17048.563    433.51898    32775.707 
 4490000      307.788   -19591.647    547.68006   -17025.255    709.20695    32716.399 
 4500000    297.68928    -19696.42    547.67665   -17196.266    117.26508    33054.437 
 4510000    303.50069   -19686.905    547.66311   -17148.649   -449.68929    33479.984 
 4520000    307.75797   -19537.168    547.71565   -16970.936    426.82136    33223.838 
 4530000    296.91094   -19517.022    547.67928   -17021.971   -411.17388    32988.529 
 4540000      285.215   -19684.312    547.67952   -17265.972   -495.95907    32646.862 
 4550000    304.08197   -19594.483    547.68091   -17052.396   -630.65621    32871.057 
 4560000    298.82609   -19589.055    547.67736   -17081.444   -750.10278    33241.671 
 4570000      289.549   -19603.003    547.68317   -17156.233   -907.72946    32491.132 
 4580000     303.5027   -19638.245    547.68102   -17099.957    381.80683    32731.896 
 4590000    294.61259   -19650.909    547.68226   -17170.929    586.23364     32830.51 
 4600000    291.47876   -19640.544    547.74236   -17181.057   -935.71754    33093.773 
 4610000    292.99703   -19625.788    547.67868   -17156.407    108.56527      32756.7 
 4620000    288.78079   -19605.496    547.68449   -17163.763    277.99857    33065.823 
 4630000    292.45599   -19724.999    547.67786   -17259.168    663.72857    32904.061 
 4640000    289.60439   -19603.816    547.67236   -17156.693    748.95841    32777.636 
 4650000    298.54229   -19602.455    547.68207   -17096.701   -677.70431    33200.245 
 4660000    290.97783   -19593.835    547.66597   -17137.711   -407.41599    32586.042 
 4670000    303.01814    -19730.88    547.69362   -17195.758    638.05598    32335.274 
 4680000    303.52181   -19744.956    547.67932   -17206.545    152.72059    33188.779 
 4690000    297.74409   -19648.804     547.6794   -17148.288    398.01173     32617.74 
 4700000    293.29742   -19721.883    547.67959   -17250.532    547.52532    32557.465 
 4710000    301.54986   -19763.285    547.67856   -17237.809   -567.95382    32558.313 
 4720000    299.27081   -19587.048    547.71799    -17076.48    1164.8332    32562.589 
 4730000    303.47757   -19601.091    547.67868   -17062.971    25.062711    32790.356 
 4740000    297.28484   -19645.986    547.68636   -17148.475   -979.31677    32905.871 
 4750000    295.08826   -19521.156    547.67936   -17038.059   -164.87839    32998.175 
 4760000    292.41636   -19571.867      547.681   -17106.292    161.16199        32977 
 4770000    300.02981   -19566.865    547.67891   -17051.358    101.58334    32897.592 
 4780000    303.70235    -19555.69    547.68103   -17016.094    73.423906    32962.615 
 4790000    293.70539    -19619.57    547.67598   -17145.546   -307.02093    33268.734 
 4800000    299.03507   -19526.235    547.67681   -17017.254   -361.19824    33472.411 
 4810000    286.62359   -19609.748    547.69617   -17182.152   -437.24131    32592.831 
 4820000    295.88366   -19518.364    547.67615   -17030.054   -556.63998    32839.803 
 4830000    311.55488   -19658.293    547.68058   -17067.193   -234.43805      33204.3 
 4840000       299.41   -19625.672    547.68119   -17114.228    188.77765    32990.415 
 4850000    296.13407   -19628.075    547.67525   -17138.123    673.85383    32771.457 
 4860000      301.694   -19623.093    547.68036    -17096.67    426.08615    32648.548 
 4870000    294.80168   -19726.075    547.67964   -17244.857    540.96961    32575.793 
 4880000    293.97682   -19612.813    547.67589   -17137.009    154.74207    32867.599 
 4890000    293.50057   -19522.666    547.65219    -17050.01   -114.72843    33241.659 
 4900000    294.26398   -19498.477    547.65295   -17020.813   -273.37778    33039.193 
 4910000    303.68396   -19516.912    547.66501   -16977.452    224.25183    32745.783 
 4920000      295.372   -19593.438    547.68026   -17108.479    541.07327     32863.77 
 4930000     299.3634   -19632.975    547.68257   -17121.835       127.84    32614.063 
 4940000    293.86738   -19662.588    547.67749     -17187.5    531.95032    32904.412 
 4950000    303.72434   -19664.361    547.67245   -17124.629   -74.771917    32903.352 
 4960000    299.91461   -19778.668    547.57418   -17264.021   -6.4671609    32778.782 
 4970000    297.25556   -19614.127    547.68103   -17116.813    102.38943    33336.843 
 4980000    291.24065   -19647.192    547.68445   -17189.325   -62.256231    32651.454 
 4990000    298.57625   -19689.957    547.68134   -17183.981    -106.2212    33122.448 
 5000000    301.17225   -19514.322    547.68038    -16991.32   -183.40776    33331.198 
Loop time of 7301.75 on 128 procs for 5000000 steps with 3384 atoms

Performance: 59.164 ns/day, 0.406 hours/ns, 684.768 timesteps/s
99.3% CPU use with 128 MPI tasks x no OpenMP threads

MPI task timing breakdown:
Section |  min time  |  avg time  |  max time  |%varavg| %total
---------------------------------------------------------------
Pair    | 1371.4     | 1657.6     | 1937.7     | 326.4 | 22.70
Bond    | 5.483      | 5.8981     | 6.3901     |   6.9 |  0.08
Kspace  | 2195.4     | 2465.7     | 2720.8     | 259.4 | 33.77
Neigh   | 213.92     | 223.79     | 234.32     |  56.2 |  3.06
Comm    | 586.58     | 658.89     | 739.28     | 138.7 |  9.02
Output  | 0.056639   | 0.057263   | 0.058202   |   0.2 |  0.00
Modify  | 2151.3     | 2202.4     | 2237.6     |  42.5 | 30.16
Other   |            | 87.39      |            |       |  1.20

Nlocal:    26.4375 ave 36 max 18 min
Histogram: 2 4 13 26 24 28 23 6 0 2
Nghost:    3076.8 ave 3110 max 3043 min
Histogram: 5 7 12 12 21 31 13 18 7 2
Neighs:    10477.8 ave 14555 max 6770 min
Histogram: 2 8 12 22 29 23 18 6 5 3

Total # of neighbors = 1341163
Ave neighs/atom = 396.325
Ave special neighs/atom = 2.12766
Neighbor list builds = 573030
Dangerous builds = 0
reset_timestep 0

#################### 2) Obtaining average volume in NPT ######################
# Getting the average volume of the system
variable Volume equal vol
fix VoluAve all ave/time 1 ${Npnpt} ${Npnpt} v_Volume file volume.dat
fix VoluAve all ave/time 1 5000000 ${Npnpt} v_Volume file volume.dat
fix VoluAve all ave/time 1 5000000 5000000 v_Volume file volume.dat

variable TotEn1 equal etotal
fix TEAve1 all ave/time ${Ne} ${Nr} ${Nf} v_TotEn1 file TotalENPT.dat
fix TEAve1 all ave/time 10 ${Nr} ${Nf} v_TotEn1 file TotalENPT.dat
fix TEAve1 all ave/time 10 1000 ${Nf} v_TotEn1 file TotalENPT.dat
fix TEAve1 all ave/time 10 1000 10000 v_TotEn1 file TotalENPT.dat

variable PotEn1 equal pe
fix PEAve1 all ave/time ${Ne} ${Nr} ${Nf} v_PotEn1 file PotenENPT.dat
fix PEAve1 all ave/time 10 ${Nr} ${Nf} v_PotEn1 file PotenENPT.dat
fix PEAve1 all ave/time 10 1000 ${Nf} v_PotEn1 file PotenENPT.dat
fix PEAve1 all ave/time 10 1000 10000 v_PotEn1 file PotenENPT.dat

compute T1 all temp
fix TempAve1 all ave/time ${Ne} ${Nr} ${Nf} c_T1 file temperatureNPT.dat
fix TempAve1 all ave/time 10 ${Nr} ${Nf} c_T1 file temperatureNPT.dat
fix TempAve1 all ave/time 10 1000 ${Nf} c_T1 file temperatureNPT.dat
fix TempAve1 all ave/time 10 1000 10000 c_T1 file temperatureNPT.dat

compute P1 all pressure T1
fix PressAve1 all ave/time ${Ne} ${Nr} ${Nf} c_P1 file pressureNPT.dat
fix PressAve1 all ave/time 10 ${Nr} ${Nf} c_P1 file pressureNPT.dat
fix PressAve1 all ave/time 10 1000 ${Nf} c_P1 file pressureNPT.dat
fix PressAve1 all ave/time 10 1000 10000 c_P1 file pressureNPT.dat



run ${Npnpt}
run 5000000
PPPM initialization ...
  extracting TIP4P info from pair style
  using 12-bit tables for long-range coulomb (../kspace.cpp:321)
  G vector (1/distance) = 0.314704
  grid = 32 32 32
  stencil order = 5
  estimated absolute RMS force accuracy = 0.00336287
  estimated relative force accuracy = 1.01272e-05
  using double precision FFTs
  3d grid and FFT values/proc = 2475 256
Per MPI rank memory allocation (min/avg/max) = 14.1 | 14.1 | 14.11 Mbytes
Step Temp E_pair E_mol TotEng Press Volume 
       0    301.17225   -19514.321    547.68038    -16991.32    427.92798    33331.198 
   10000    301.46848    -19540.38    547.68227   -17015.434    143.77662    32882.347 
   20000    311.96611   -19654.912    547.67915   -17061.117   -236.72756    32782.402 
   30000    299.19419   -19661.407    547.68018   -17151.379     982.8169    32741.748 
   40000      288.478   -19582.639    547.68437   -17142.893   -432.82149    32967.268 
   50000    291.12348   -19648.235    547.68135    -17191.14    132.78415    33202.503 
   60000    302.96716   -19617.302    547.68009   -17082.529    1085.6398    32650.339 
   70000     302.2706   -19672.413    547.67995   -17142.208    816.82258    32527.147 
   80000    299.09294   -19584.806    547.67959   -17075.443    16.173429    32966.562 
   90000    293.85567   -19588.525    547.68778   -17113.504    113.90098    32783.095 
  100000    304.89011   -19632.726    547.67871   -17085.342    976.33414    32659.128 
  110000    293.65422   -19630.535    547.68037   -17156.843   -838.74448    32996.197 
  120000     291.9663    -19581.72    547.68844    -17119.09   -305.38144    32719.536 
  130000    300.08655   -19578.399     547.6813   -17062.517   -40.592692    33031.566 
  140000    299.09654    -19543.59    547.67826   -17034.205    1228.3767    32755.803 
  150000    298.96346   -19637.969    547.66708   -17129.468    709.70931    32344.109 
  160000    288.74087    -19657.78     547.6603   -17216.333   -1068.7173    33031.565 
  170000    290.81875   -19665.593    547.68146   -17210.496    -181.3934      32962.8 
  180000    294.55424   -19652.665    547.69018   -17173.059    559.35427     32926.98 
  190000    296.18909   -19659.155    547.67839   -17168.839    915.36726    32229.973 
  200000     289.5988   -19548.252    547.68385   -17101.155    289.72774        32914 
  210000    300.54758   -19746.927    547.68088   -17228.022   -43.918118    32788.572 
  220000     302.5523   -19679.386    547.67744   -17147.336   -706.25382    33054.382 
  230000    299.50648   -19706.048    547.68462   -17193.967   -173.83076    32994.598 
  240000    297.77516   -19611.532    547.68073   -17110.811   -191.70473    32856.038 
  250000    302.84525   -19635.781    547.69074   -17101.796   -15.268256    32872.832 
  260000    306.05288   -19653.707     547.6836   -17098.691    522.48355    32732.581 
  270000    296.30164   -19594.435    547.67849   -17103.381    608.70418    32751.275 
  280000    305.75178   -19687.598    547.68221   -17134.559    75.512696    32896.526 
  290000    299.51029   -19658.154    547.68377    -17146.05    158.28322    33115.879 
  300000    300.36249   -19614.221    547.67713   -17096.533    250.84331    32693.713 
  310000    285.49662   -19592.908     547.6782   -17172.721       966.64    33129.517 
  320000    291.07135   -19565.396    547.67673   -17108.648    37.679477     33007.94 
  330000    314.90724   -19660.933    547.67976   -17047.847   -736.47566    33002.872 
  340000    288.27468    -19655.99    547.68218   -17217.578   -45.864439     32777.85 
  350000    292.68462   -19507.604    547.68302   -17040.268    89.110806    33292.506 
  360000    293.27525   -19554.385    547.67887   -17083.179    169.48213    32930.043 
  370000     291.9452   -19571.016    547.68038   -17108.533     35.22459    32713.068 
  380000    305.78831   -19570.374    547.68107   -17017.096   -183.55966    32852.936 
  390000    302.44208   -19613.473     547.6815   -17082.141   -334.95841     33165.14 
  400000    294.57851   -19578.596      547.684   -17098.837   -211.26971    33163.941 
  410000    307.75818   -19656.578    547.67945   -17090.382   -448.56598    32997.132 
  420000    294.75295   -19627.657    547.67886   -17146.759    251.82718    32854.074 
  430000    294.55116   -19732.789    547.68122   -17253.212    161.38627    32751.752 
  440000    295.87561   -19609.007    547.67797   -17120.748    262.75333     32834.36 
  450000    294.22229   -19593.311    547.68142   -17115.891    152.90985    32901.347 
  460000    290.42829   -19685.571    547.69076   -17233.027    602.76847    32806.395 
  470000    299.93685   -19633.519    547.68033    -17118.62    868.41425    32591.804 
  480000    293.93719   -19676.731    547.68164   -17201.182   -131.94612    32316.182 
  490000     305.5256   -19548.314    547.68299   -16996.757    100.73372    32937.229 
  500000    297.45355   -19423.364    547.67915   -16924.754    479.15919    33193.359 
  510000     297.4638   -19568.884    547.67967   -17070.206   -32.529138    32788.861 
  520000    302.14845   -19579.536    547.68021   -17050.132    1265.2718    32809.196 
  530000    299.43855   -19603.457    547.68052   -17091.826    335.05425    32944.827 
  540000    298.42023   -19633.836    547.68111   -17128.883   -739.12891    32786.603 
  550000     300.3538   -19617.125     547.6777   -17099.494    156.74167    32532.618 
  560000    295.30309    -19654.92    547.67779   -17170.415   -398.46544    33175.559 
  570000    300.30722   -19711.966    547.67706   -17194.641   -404.38669    32875.554 
  580000    303.11028   -19624.033    547.68066    -17088.32   -868.94752    33203.031 
  590000    294.75399   -19643.643    547.68351   -17162.734    81.140766    32775.408 
  600000    299.83099   -19622.685     547.6918   -17108.469   -57.753135    32753.068 
  610000    301.85793   -19737.905    547.68301   -17210.404   -237.32567    32678.932 
  620000    299.60353   -19677.861    547.68002   -17165.149   -443.50924    32855.441 
  630000    303.83176   -19690.998    547.68445   -17150.549    660.53265    32766.497 
  640000    289.00576   -19663.574    547.68034    -17220.37   -209.22964    33076.738 
  650000    295.46884   -19534.445    547.67898   -17048.852    209.26339    32803.801 
  660000     289.6323   -19626.198    547.68003   -17178.885   -1065.3469     32964.93 
  670000     295.0825    -19587.53    547.68398   -17104.466    -330.1874    33201.473 
  680000    294.43615   -19521.852    547.68358   -17043.028   -610.72272    33108.463 
  690000    299.02658   -19561.668    547.67544   -17052.745   -632.35759    32824.961 
  700000    294.74984   -19485.407    547.69177   -17004.517   -186.49974    32824.355 
  710000    292.35883   -19514.018    547.67691   -17048.825    943.74566     32933.97 
  720000    298.70576   -19639.537    547.67926   -17132.714   -522.16347    32946.219 
  730000    292.73721   -19480.547    547.68112   -17012.868    1211.2348    32943.302 
  740000    298.67887    -19662.78    547.67977   -17156.133    212.16878    32861.941 
  750000    296.22824   -19676.814    547.68058   -17186.239   -506.17062    32856.249 
  760000    293.80381   -19640.414    547.67487   -17165.746    85.109778    32593.022 
  770000    306.83158   -19749.306    547.68784   -17189.179    445.75783    32688.619 
  780000    301.64286   -19564.085    547.68181   -17037.995   -450.02488    32734.472 
  790000    292.19981   -19627.448    547.68676   -17163.289    29.710556    32929.526 
  800000    302.98416    -19548.71    547.68867   -17013.816    596.79879    33096.265 
  810000    299.99652    -19559.48     547.6771   -17044.193   -938.90487    33247.669 
  820000    291.72115    -19570.17    547.67955   -17109.156   -396.49876    33044.569 
  830000    306.09431   -19680.288    547.66768   -17125.016   -443.36869    32973.934 
  840000    302.22268   -19610.125    547.68025   -17080.234    388.28121    33050.281 
  850000    292.77232   -19580.694    547.68454   -17112.782    225.74065     32874.57 
  860000    295.94708   -19489.151    547.68411   -17000.417    35.337046    33064.702 
  870000    290.34377   -19591.581    547.68101     -17139.6   -287.30605    32637.817 
  880000    299.90545   -19721.343    547.71104   -17206.619   -290.74445    33071.983 
  890000    292.50428   -19598.783    547.68007   -17132.633    925.20013    32640.426 
  900000    290.14147   -19629.001    547.68154   -17178.347    97.512005    33015.137 
  910000    292.13958   -19599.851    547.67821   -17136.095   -307.83902    33067.413 
  920000    293.42323   -19602.004    547.67725    -17129.83    137.41248    33293.746 
  930000    305.82143    -19557.26    547.68641    -17003.76   -340.88268    32869.694 
  940000     298.2345   -19646.431    547.68005   -17142.698    -307.6662    32756.529 
  950000    294.26693   -19670.044      547.683    -17192.33   -979.12381     33136.52 
  960000    309.22894    -19666.39    547.67748   -17090.549     343.6013      32896.3 
  970000    299.50388   -19580.248    547.68104   -17068.188    -344.2493    33030.933 
  980000    301.16617   -19537.379    547.67774    -17014.42    -408.4596    33093.161 
  990000    298.39451   -19646.785    547.65855   -17142.024     746.3808    32761.346 
 1000000    286.64594   -19631.067    547.68346   -17203.337    399.74142    33083.612 
 1010000      296.557   -19545.098    547.66692    -17052.38   -163.12604    33259.709 
 1020000    294.65753   -19606.598    547.68255   -17126.322    737.84701    32742.986 
 1030000    303.38577   -19699.308    547.68272   -17161.786   -431.44582    32660.087 
 1040000    294.48216   -19563.647    547.68004   -17084.524   -800.51807    33258.909 
 1050000    290.74648   -19692.384    547.67031   -17237.773    297.44647     32820.98 
 1060000    297.31956   -19648.456    547.68112   -17150.723     216.8178    33068.317 
 1070000    295.60804   -19642.303    547.69251   -17155.784    62.779853    32803.958 
 1080000    297.28367   -19593.896    547.67876     -17096.4    341.31417    32767.127 
 1090000    296.36195   -19620.087    547.67913   -17128.636   -628.04627    32655.404 
 1100000    293.05347   -19490.002    547.67735   -17020.253     149.9343    32847.136 
 1110000     294.2392   -19654.324    547.68508    -17176.79   -20.307141    32898.298 
 1120000    295.06903   -19644.441     547.6784   -17161.471    559.66596    32603.558 
 1130000    303.43061   -19697.339    547.68273   -17159.523    744.85589    32085.195 
 1140000    304.80256   -19722.249    547.68271   -17175.435    181.65231    32786.584 
 1150000     295.5927   -19671.238    547.68542   -17184.826   -721.72306    32781.928 
 1160000    298.57611   -19649.288    547.67734   -17143.317   -1062.6617    32945.249 
 1170000    300.43343   -19514.232    547.64735   -16996.109   -444.74156    33065.187 
 1180000    290.20288   -19641.992    547.67395   -17190.942   -514.69545    32808.794 
 1190000    302.62077   -19666.883    547.70479   -17134.356   -593.49563     32873.34 
 1200000    299.10429   -19655.786     547.6786   -17146.349    -86.45361    32943.808 
 1210000    308.81284   -19532.552    547.68215   -16959.436    156.85242      33083.9 
 1220000    291.67549   -19590.519    547.68177   -17129.803    188.96456    33130.352 
 1230000    294.00594   -19669.292    547.68025   -17193.292    -719.6594    32931.096 
 1240000    292.38946     -19606.2      547.673    -17140.81   -267.29063    32985.274 
 1250000    299.45276   -19727.128    547.68383   -17215.401    314.31398    32564.564 
 1260000    292.07434    -19728.73    547.67895   -17265.401   -437.25859     32792.64 
 1270000    297.41022   -19571.539    547.68396   -17073.208    393.26889    33046.641 
 1280000    298.54264   -19546.434    547.68414   -17040.676   -688.87234     33002.33 
 1290000    299.89956   -19543.561    547.68051   -17028.906   -320.87689    33029.992 
 1300000    301.83177   -19492.741     547.6731   -16965.421   -345.31201    33008.545 
 1310000    297.05039    -19609.45    547.67719   -17113.486   -421.33052    33152.542 
 1320000      286.559    -19648.72    547.68356    -17221.56   -386.76378    32849.602 
 1330000     292.9022   -19587.528    547.68207   -17118.766   -13.528309    32942.208 
 1340000    302.39638   -19647.779    547.69062   -17116.738   -452.12649    32942.982 
 1350000    297.22902   -19622.388    547.67994    -17125.25    486.04353    32803.634 
 1360000    298.43879   -19562.866    547.68129   -17057.792   -318.72953    33381.355 
 1370000    289.45252   -19682.672    547.68158   -17236.536    366.03319    32636.151 
 1380000    307.15121   -19642.414    547.67724   -17080.201     29.73933    32885.884 
 1390000    297.53766   -19513.775    547.67938   -17014.613   -895.54299    33388.719 
 1400000    282.11016   -19659.186    547.67934    -17261.21    -532.7901    33054.961 
 1410000    293.71032   -19657.734    547.67646   -17183.678    16.649394    32748.051 
 1420000    308.63264   -19594.779     547.6806   -17022.846   -102.30038     33055.19 
 1430000    303.77929   -19637.098    547.68087   -17096.997   -1052.8911    33025.059 
 1440000    294.59772   -19599.979    547.68349   -17120.095   -109.08379    32768.719 
 1450000    291.27629    -19643.67    547.67798   -17185.576    308.94608    32784.946 
 1460000     295.7973   -19653.254    547.68531     -17165.5   -304.19848    32755.196 
 1470000    301.97719   -19550.302    547.68014   -17022.021    268.20994    33110.344 
 1480000    295.03733   -19680.477    547.68289   -17197.711    254.03739    32604.757 
 1490000    305.43097   -19623.093    547.68207   -17072.157    326.41097    32976.881 
 1500000    297.87214   -19617.861    547.69378   -17116.491    186.90761    33082.028 
 1510000    306.04269   -19535.892    547.68132   -16980.945    278.11758    32952.153 
 1520000    298.38592   -19635.686    547.67858   -17130.962    173.25748    32669.896 
 1530000    298.25542   -19561.649    547.69053   -17057.768   -189.25746     33052.58 
 1540000    294.42392   -19659.336    547.68126   -17180.595    4.0923218    32578.549 
 1550000    300.57021   -19648.429    547.68039   -17129.376   -639.97596    32724.894 
 1560000    291.33807   -19586.052    547.67922   -17127.551   -10.833158     33009.47 
 1570000    296.19628   -19503.715     547.6805    -17013.35   -38.870641    33047.309 
 1580000    297.91589   -19554.362    547.67834    -17052.72   -822.29243    33077.146 
 1590000     294.8113   -19546.058    547.66462   -17064.792   -936.68718    33161.113 
 1600000    297.99427   -19557.485    547.68277   -17055.324   -1319.1295    33141.128 
 1610000    303.48401   -19576.687    547.68181   -17038.522   -428.25186    32966.389 
 1620000    299.39799   -19636.196    547.67698   -17124.835   -853.73025    32659.295 
 1630000    289.26793   -19611.102    547.68009   -17166.179   -327.63885    32973.959 
 1640000    308.01231   -19696.424    547.68226   -17128.558   -238.91417    32237.683 
 1650000    304.22953   -19556.993     547.6731   -17013.947   -437.03881    32892.132 
 1660000    299.05093   -19590.552    547.67928   -17081.465   -1109.4075    32942.351 
 1670000    306.39736   -19666.142    547.68094   -17108.869   -232.85535     32657.25 
 1680000    291.64498   -19660.105    547.67487   -17199.596   -314.99773    33003.541 
 1690000    295.58558   -19655.396     547.6818   -17169.035    2.2641578    32767.026 
 1700000    296.70095   -19582.797    547.68401   -17089.118   -235.00402    33201.585 
 1710000    294.81369   -19528.931    547.67856   -17047.635   -474.96854    33274.686 
 1720000     300.2218    -19557.03    547.68018   -17040.262    68.046853    32918.416 
 1730000    290.52855     -19617.4    547.68519   -17164.204    1069.5218    32681.411 
 1740000    290.57843   -19696.996    547.68204   -17243.476     663.1967    32770.521 
 1750000    300.15991   -19559.432    547.67659   -17043.074    38.735538     32947.88 
 1760000    294.73104   -19607.378    547.68362    -17126.62   -145.63562    33265.422 
 1770000    284.45708   -19519.706    547.67839   -17106.337   -853.72882    33494.424 
 1780000    301.13638   -19641.702    547.67984   -17118.936   -40.588778    32835.661 
 1790000    298.03418   -19721.007    547.67339   -17218.594    620.43434    33034.436 
 1800000    300.54579   -19545.695    547.68077   -17026.802   -267.62594      33216.4 
 1810000    296.39172   -19673.806    547.68413   -17182.155    151.18251    32613.481 
 1820000    290.30888   -19530.323     547.6811   -17078.571    334.43188     33040.28 
 1830000    291.38278    -19603.41      547.682   -17144.613   -117.22836    32831.151 
 1840000    293.09017   -19567.435    547.67961   -17097.443    109.75648    32946.361 
 1850000    294.82116   -19656.219    547.67957   -17174.874    752.40287    32210.824 
 1860000    295.68792    -19581.31    547.68347   -17094.276    707.63999    32980.234 
 1870000    298.66585   -19643.243    547.68167   -17136.679    869.55116    32614.271 
 1880000    298.81678   -19685.883    547.66426   -17178.346   -671.83088    33056.369 
 1890000    301.10947   -19659.292    547.67958   -17136.703   -1037.4464    33113.955 
 1900000    290.91915   -19586.042    547.68074   -17130.288   -211.05995    33829.352 
 1910000    301.21681   -19695.992    547.67925   -17172.699    695.09422    32676.071 
 1920000    296.90092   -19627.669    547.68418   -17132.678   -658.82697     33218.57 
 1930000    304.34465   -19581.624    547.67678   -17037.819    1487.6651    32726.995 
 1940000    303.63099   -19572.853    547.68299   -17033.722   -178.20069    32582.496 
 1950000    298.35828   -19582.793    547.67875   -17078.249   -754.66636    32980.551 
 1960000    294.11788   -19667.649    547.60135   -17190.994    461.60126    32834.751 
 1970000     302.4299   -19702.499     547.6864   -17171.242    889.54251    33124.615 
 1980000    295.09107   -19649.442    547.67937   -17166.326    639.63483    32754.788 
 1990000    296.55124   -19631.776    547.68043   -17139.082    193.26586    33183.868 
 2000000    303.59126   -19595.755    547.67949   -17056.889   -958.91709    33169.937 
 2010000    288.66525   -19577.784    547.68238   -17136.811   -148.04744     32683.62 
 2020000    298.81937   -19623.814    547.67958   -17116.246    168.91124     32828.97 
 2030000    303.87125   -19464.268    547.67974   -16923.565    419.00459    32810.244 
 2040000    300.98453   -19603.006     547.6817   -17081.235   -341.78129    33268.046 
 2050000    290.04801   -19653.335    547.69002   -17203.285   -822.30652    33086.838 
 2060000    293.89571   -19631.612    547.67919   -17156.336     504.8603    32696.865 
 2070000    294.94163   -19608.074    547.69429   -17125.924   -817.58922    32694.139 
 2080000    300.49823   -19637.445    547.67884   -17118.866   -231.73168    33141.958 
 2090000     299.9798   -19546.061    547.67936   -17030.882   -901.71722    33348.609 
 2100000    298.70651   -19663.466    547.68025   -17156.637    -158.6148    32888.726 
 2110000    289.54247   -19688.253    547.68897    -17241.52   -540.31912    32653.653 
 2120000    291.62213   -19609.304    547.68219   -17148.938    478.60335    32452.757 
 2130000    293.75472   -19631.086    547.68262   -17156.732    265.56239    33161.676 
 2140000    295.44027   -19665.672    547.68202   -17180.263   -948.82298    33132.921 
 2150000    295.01158    -19591.06    547.68712   -17108.458   -392.48633    33104.819 
 2160000    307.72919   -19663.897    547.67925   -17097.891    232.40988    33324.972 
 2170000    293.58745   -19669.701     547.6788   -17196.448    132.61693    32654.204 
 2180000    295.74319   -19609.095    547.68181     -17121.7   -270.19796    32995.679 
 2190000    298.44591    -19606.55    547.70946   -17101.401    735.47163    32567.567 
 2200000    302.98657   -19640.964    547.68295    -17106.06   -24.209139    32695.101 
 2210000    287.09093   -19589.712    547.68209   -17159.064   -26.964555    33130.243 
 2220000    292.22578   -19582.734    547.68435   -17118.407    63.832551     32452.33 
 2230000    300.26305   -19507.874    547.67806   -16990.838   -313.51972    32848.197 
 2240000    296.08022   -19605.675     547.6879   -17116.064    466.34773    32789.154 
 2250000    296.04127   -19579.375    547.68501   -17090.022    1075.7698    32761.773 
 2260000    294.15107   -19597.236    547.68329   -17120.282   -481.06058    33023.527 
 2270000    296.64917    -19616.04    547.68172   -17122.703    -1026.531    32733.333 
 2280000    300.89959   -19563.647    547.72897   -17042.385    49.597455    33076.925 
 2290000    304.50188   -19659.806    547.68099   -17114.965    801.83261    32692.405 
 2300000    305.99797   -19634.134      547.678   -17079.484     99.58641    32394.059 
 2310000    298.22254   -19567.251    547.68199   -17063.594    99.554708    33227.626 
 2320000    293.00668   -19617.751    547.68038   -17148.306   -154.32552    32911.647 
 2330000    308.23994   -19680.381    547.67915   -17111.025    780.18964    32698.326 
 2340000    302.36039   -19614.473    547.68328   -17083.675    209.38282    32445.257 
 2350000     290.3149   -19557.222    547.70505   -17105.407   -172.49241    33024.334 
 2360000    293.51896   -19652.939    547.67722   -17180.137    409.22772    32370.306 
 2370000    304.67742   -19581.343    547.68091   -17035.352    19.035188     33133.16 
 2380000    307.49377   -19756.447    547.65409    -17192.01    339.18436    32789.437 
 2390000     294.5556   -19598.421    547.69084   -17118.806   -132.13664    32892.091 
 2400000    293.80344   -19634.096    547.69216   -17159.413   -312.31012    33172.433 
 2410000    304.88455    -19697.93    547.68094   -17150.579    652.95468    32430.556 
 2420000    294.82112   -19642.508    547.67923   -17161.163   -56.358592    32985.508 
 2430000    299.35511   -19654.103     547.6837   -17143.016    307.23956    32561.373 
 2440000    298.28317   -19628.643    547.67716   -17124.594   -248.79954     32868.79 
 2450000    310.92469   -19571.734    547.67745   -16984.772   -107.32475    33498.773 
 2460000    297.41836    -19659.78     547.6816   -17161.398   -514.30998    33003.472 
 2470000    295.63176   -19527.994    547.68297   -17041.329    966.10566    32748.318 
 2480000     291.2964   -19714.523    547.67738   -17256.298   -181.85115    32882.761 
 2490000    300.85502   -19643.997    547.67843   -17123.078   -742.87759    33126.379 
 2500000    299.27652   -19727.138    547.68169   -17216.569   -36.735707    32898.975 
 2510000    302.10601   -19654.064    547.70676   -17124.912   -33.371666    32957.849 
 2520000    295.05181   -19564.716    547.67882   -17081.858     228.4813    32688.263 
 2530000    287.08171    -19596.48    547.65121   -17165.924    485.81101    32876.529 
 2540000    301.16741   -19570.615    547.68313   -17047.642    554.42674    33009.358 
 2550000    294.45617   -19671.848     547.6851   -17192.891   -529.88123    32989.629 
 2560000    302.05017   -19675.361    547.71779   -17146.564   -105.23917    32915.151 
 2570000     293.9605   -19655.371    547.68118   -17179.669   -1234.7533    32736.035 
 2580000    294.56866   -19719.461    547.68019   -17239.771    -367.8081    32864.721 
 2590000    294.32882   -19673.935     547.6847   -17195.813   -378.51692    32602.858 
 2600000    298.86165   -19616.864    547.68561   -17109.012   -791.73741    33349.875 
 2610000    293.52651    -19582.86    547.67822   -17110.007    325.14585    32781.723 
 2620000    306.88145   -19666.022    547.68053   -17105.575    307.86278    33080.927 
 2630000    303.97334   -19616.743    547.67897   -17075.371   -173.26195    32914.725 
 2640000    297.66537   -19705.267     547.6747   -17205.272    67.234109    32649.827 
 2650000    305.75958   -19602.318    547.67769   -17049.232    789.01702     32843.39 
 2660000    297.46553   -19546.381    547.67915   -17047.692   -30.292975    33060.613 
 2670000    301.25132   -19641.595    547.67404   -17118.081   -525.96687    32874.869 
 2680000    303.73317   -19640.064    547.68067   -17100.266     526.6568     32768.54 
 2690000     289.1907   -19518.768    547.67917   -17074.352    459.09285    32769.741 
 2700000    304.79559   -19662.226    547.69029    -17115.45    429.75685    32556.389 
 2710000     297.2941   -19666.544    547.68558   -17168.973     480.7622    32836.544 
 2720000    296.98824   -19589.936    547.67769   -17094.379   -266.00987    32644.303 
 2730000    296.62565   -19636.762    547.68142   -17143.579   -113.56809    32981.642 
 2740000    299.75708   -19587.591    547.68016   -17073.872   -416.54473    32721.559 
 2750000    300.20323   -19655.228    547.67722   -17138.585    201.31149    32961.528 
 2760000    306.00117   -19641.477    547.68282   -17086.801    506.90122     32406.84 
 2770000     301.1805   -19582.933    547.74309   -17059.815   -272.96648    32946.767 
 2780000    297.88818   -19662.667      547.676    -17161.21   -278.92938    32519.444 
 2790000     286.2533   -19573.205    547.68031   -17148.053   -581.22397    33046.417 
 2800000    296.80548   -19570.493     547.6798   -17076.133    434.22218    33035.784 
 2810000     286.7421   -19547.945    547.68034   -17119.587    354.46225    32943.296 
 2820000    285.08846   -19669.076    547.68032   -17251.564   -72.720203    32818.001 
 2830000    302.66724   -19681.432    547.68008   -17148.625   -219.29297    32810.599 
 2840000    303.15913   -19662.933    547.67826   -17126.902    1062.3953    32621.357 
 2850000    298.89623   -19636.557    547.67758   -17128.486    58.671976    32825.154 
 2860000    298.19071   -19510.866    547.64267   -17007.457     295.7463    32738.715 
 2870000    304.59692   -19568.028    547.68709   -17022.558   -282.92222    32943.659 
 2880000    296.25546   -19611.874      547.682   -17121.119   -937.42372     33256.42 
 2890000    294.04447   -19659.941    547.68072   -17183.689    1274.1112    32456.597 
 2900000    307.70569   -19631.031    547.69984   -17065.158    719.18885    32981.793 
 2910000    295.35457   -19616.108     547.6804   -17131.263    -623.1306    32569.915 
 2920000    298.68791   -19716.121    547.67769   -17209.416   -627.36154    33390.771 
 2930000    310.39475   -19604.715    547.67621    -17021.23    382.38617    32585.188 
 2940000    296.99946   -19661.095    547.67853   -17165.463    89.435581    32897.517 
 2950000    296.10363   -19603.126    547.70559   -17113.343    599.30462    32688.952 
 2960000    299.47456   -19543.924    547.68421   -17032.054    287.34273    32673.132 
 2970000    306.83437   -19634.197    547.67662   -17074.063    391.74493    32452.939 
 2980000    298.85808   -19644.671    547.68922   -17136.838   -110.30044    32983.902 
 2990000    293.78218   -19634.467    547.67613    -17159.94   -102.31989    33027.836 
 3000000    294.15033   -19607.122    547.67888   -17130.177   -382.35984    33079.889 
 3010000    306.86378   -19649.553    547.70585   -17089.196    388.78447    32792.793 
 3020000    292.94367   -19656.083    547.68389   -17187.047    619.04131    32630.032 
 3030000    290.86703   -19680.579     547.6767    -17225.17   -58.349489    32976.122 
 3040000    297.77915   -19683.402     547.6785   -17182.657    71.103179    32900.404 
 3050000     300.0819   -19578.379     547.6855   -17062.523   -241.20421     33122.57 
 3060000    301.61482   -19501.933    547.65832   -16976.051   -829.21464    33235.407 
 3070000    299.51994   -19565.395    547.68677   -17053.224   -345.20479    32682.375 
 3080000    296.14656   -19632.136    547.68423   -17142.093    589.60469    32933.914 
 3090000    291.34904   -19668.289    547.68308   -17209.713   -370.96762    32904.245 
 3100000     301.3507   -19552.173    547.68126       -17028    528.00049    32743.981 
 3110000    286.58395   -19693.264    547.68319   -17265.941   -511.49738    32498.386 
 3120000    303.34042   -19608.185    547.68284    -17070.96    183.91794    32952.748 
 3130000    289.56155   -19551.703    547.68408    -17104.85    310.47058    33059.081 
 3140000    309.78458   -19544.203    547.68049   -16964.715    200.27857    32832.705 
 3150000    299.61205   -19600.804    547.68091   -17088.035    174.93738    32754.675 
 3160000    287.53432   -19563.601     547.6801   -17130.048   -689.37993    32873.469 
 3170000     299.1847   -19539.686    547.67606   -17029.724   -443.22707    33542.146 
 3180000    309.53263   -19627.922    547.68065   -17050.086    272.59403    33085.285 
 3190000    304.98777   -19728.606     547.6841   -17180.576   -138.35445    33235.141 
 3200000    291.37624   -19641.318    547.69017   -17182.556    965.07963    32673.685 
 3210000     298.4695   -19689.114    547.67782   -17183.841    208.20737    32708.217 
 3220000    307.57435   -19737.205    547.62265   -17172.271   -467.58732    32692.312 
 3230000     306.1884   -19628.948    547.67558   -17073.051    712.01393    33200.193 
 3240000    293.04743   -19734.281    547.64992   -17264.599    267.70119     32834.83 
 3250000    293.96917   -19599.401     547.6816   -17123.641     92.71378    32977.314 
 3260000    296.85606   -19646.234    547.68475   -17151.537   -318.07872    32937.852 
 3270000    292.68749    -19612.87    547.68022   -17145.518    737.53518    32977.437 
 3280000    297.90452   -19568.848    547.68018   -17067.279   -380.12457     33061.02 
 3290000    296.03088   -19557.261    547.68072    -17067.98   -236.95984    32506.081 
 3300000    299.96625    -19708.82     547.6781    -17193.73     599.8032      32833.7 
 3310000    293.56778   -19626.486    547.67682   -17153.364    487.35619    32735.511 
 3320000    302.07039    -19574.56    547.67639   -17045.672   -113.25785    32522.831 
 3330000    307.34742   -19481.681    547.67912    -16918.18   -157.82992    33485.505 
 3340000     296.7586   -19662.743    547.68106   -17168.689    977.20385    32781.031 
 3350000    308.38805   -19641.471    547.67831   -17071.144   -353.67404    33335.163 
 3360000    294.55141    -19650.09    547.65793   -17170.536   -484.88341    32911.666 
 3370000    296.08384   -19589.898    547.68079   -17100.269    210.47584    33307.146 
 3380000    295.58462   -19657.795    547.68102   -17171.441    536.29432    33019.789 
 3390000     295.2449   -19640.761    547.67937   -17156.637    66.479853    32749.288 
 3400000     303.2869   -19618.428    547.67793   -17081.559   -332.25262    33130.201 
 3410000    309.59116   -19663.547    547.67836    -17085.33    584.86568    32817.081 
 3420000    297.53116   -19585.316    547.75235   -17086.124    633.92142    32960.121 
 3430000    302.30035   -19641.289    547.67818    -17110.89   -110.17333     32982.34 
 3440000    300.41084   -19699.494    547.65704    -17181.51    605.05781    32741.756 
 3450000    297.53983   -19630.226      547.682   -17131.047    247.95013    33060.544 
 3460000    292.37268   -19633.469    547.68187    -17168.18   -144.22607    33107.191 
 3470000    292.15523   -19606.483    547.68003   -17142.622   -977.88995    33098.074 
 3480000    301.65361   -19574.167    547.68175   -17048.007    807.88375    32769.449 
 3490000    289.38503   -19717.719    547.67935   -17272.028   -591.85991    32830.431 
 3500000    296.59708    -19629.72     547.6775   -17136.729    62.261211     32597.08 
 3510000    285.83018   -19727.109    547.68108   -17304.732    142.49419    32680.072 
 3520000    293.35052   -19634.774    547.69236   -17163.061     596.8618    32710.136 
 3530000    298.88108   -19570.733    547.69555   -17062.743   -758.58469    33073.102 
 3540000    299.04882   -19637.913    547.66577   -17128.853    859.38172    32706.484 
 3550000     296.9219   -19634.392     547.6797   -17139.269    717.93325    32647.727 
 3560000    302.67896   -19634.988    547.67848   -17102.106    961.66488    32748.556 
 3570000    294.34408   -19581.216    547.66048   -17103.019   -154.09417     33101.23 
 3580000    290.49694   -19552.612    547.67322   -17099.635    579.34796    32933.948 
 3590000    298.60991   -19556.184    547.68264   -17049.986    50.909363    32778.447 
 3600000    293.83792   -19488.892    547.68792   -17013.987   -701.23261    32619.171 
 3610000     290.5364   -19670.561    547.67683   -17217.321    306.74979    32516.823 
 3620000    295.43123   -19637.083    547.68229   -17151.733   -92.653583    32673.624 
 3630000    296.16123   -19604.334    547.66009   -17114.218    -1261.232    32816.492 
 3640000    300.42824    -19609.84    547.67797   -17091.721   -465.15817    32550.915 
 3650000    292.72268     -19680.7    547.68349   -17213.115     247.4984    32413.565 
 3660000    294.33491   -19626.631    547.67945   -17148.475   -239.34059    32822.994 
 3670000    298.28345   -19544.171     547.6826   -17040.115    41.302163    33043.777 
 3680000    290.81541   -19539.211    547.68354   -17084.134    96.151191    32698.853 
 3690000    292.39722   -19587.508    547.67414   -17122.066    152.06946    32897.034 
 3700000    286.00497   -19515.221    547.68163   -17091.697     453.9454    32467.235 
 3710000    305.56824   -19706.249    547.67586   -17154.419     95.20621    32918.037 
 3720000     288.9967    -19673.77    547.67846   -17230.627    105.99051    32761.908 
 3730000    296.80468   -19546.009    547.66188   -17051.672   -78.187242    32671.504 
 3740000    297.77698   -19530.062    547.68941    -17029.32    142.24771     33084.71 
 3750000    298.07043    -19562.92    547.69429   -17060.249   -506.39499    32869.407 
 3760000    304.84554   -19521.877    547.68065   -16974.783   -188.07386    33320.661 
 3770000     290.2126   -19613.439    547.67781   -17162.322   -537.12441    33037.275 
 3780000    297.98688   -19626.875    547.67838   -17124.767    83.481183    32910.116 
 3790000    304.69445   -19647.526    547.68813   -17101.416    46.634022    32901.453 
 3800000    316.13438   -19569.736    547.68126     -16948.6   -340.07714      33201.3 
 3810000    299.10473   -19616.915    547.67731   -17107.477   -174.70341    32652.813 
 3820000    295.20202   -19640.013    547.67747   -17156.172   -262.65638    33090.915 
 3830000    302.44377   -19613.457    547.68243   -17082.114    1164.1962     33183.92 
 3840000    298.66377   -19640.071    547.67182   -17133.531    280.83842    32731.401 
 3850000    291.12178   -19577.353    547.68393   -17120.267    -158.6962      33016.7 
 3860000    295.90513   -19712.705    547.68227   -17224.247   -41.243636    33029.682 
 3870000    294.91725    -19694.19    547.67942   -17212.214   -223.09523    32357.596 
 3880000    304.17126   -19647.441    547.67992    -17104.77   -424.80063    32861.678 
 3890000    294.60331    -19679.87    547.69505   -17199.938   -434.43762    32677.532 
 3900000    301.30481   -19595.785    547.69007   -17071.904    562.83408    32805.532 
 3910000    296.91418   -19632.958    547.67726   -17137.887   -1456.7954    33218.488 
 3920000    297.26121   -19606.753    547.68268   -17109.401    748.54618    32551.321 
 3930000    291.84913   -19678.857    547.68163   -17217.002    655.42136    32663.681 
 3940000    296.95867   -19663.944    547.68272   -17168.576   -206.99984    32412.906 
 3950000    302.72196   -19517.151    547.67942   -16983.986    641.46409    32918.639 
 3960000    301.52492   -19647.182      547.684   -17121.863    244.04426     32841.09 
 3970000    303.79219   -19567.213    547.67612   -17027.032   -412.24057    32914.158 
 3980000    296.14543   -19569.337    547.67975   -17079.306   -438.60188     32939.31 
 3990000    295.14762   -19579.407    547.68071    -17095.92    87.445516    33314.206 
 4000000    294.30449   -19736.746      547.692   -17258.777    924.75132    32462.569 
 4010000    294.00686   -19657.518    547.67919   -17181.513   -424.52983    32799.138 
 4020000    299.15147   -19577.512    547.68201   -17067.763   -14.231286    32809.318 
 4030000    306.36091   -19570.336     547.6837     -17013.3    68.066367    33108.833 
 4040000     300.2616   -19615.422    547.67813   -17098.395    750.48692    32514.005 
 4050000    312.07269   -19549.609    547.61685   -16955.177    -142.4606    32857.541 
 4060000    291.40229   -19589.991    547.68373   -17131.065    67.631568    33086.739 
 4070000    288.80723   -19586.399    547.67864   -17144.499   -1048.3659     33203.73 
 4080000    293.56204   -19538.755    547.67655   -17065.671     55.49044     32447.31 
 4090000    303.55769   -19579.559    547.67854   -17040.914    30.609415    32941.679 
 4100000    295.82544   -19583.271    547.68106   -17095.337    300.13127    32856.897 
 4110000    291.21658   -19683.815    547.68648   -17226.104    678.13375    32705.045 
 4120000    293.63433   -19600.878    547.71935   -17127.277   -344.55665    32874.737 
 4130000    297.94413   -19588.265    547.68444   -17086.431    985.30223     32634.67 
 4140000     296.7425   -19598.283    547.68197   -17104.333   -168.43516    33107.906 
 4150000    294.94379   -19635.367    547.68282   -17153.214    20.641326    33088.104 
 4160000    297.35382   -19575.378     547.7063   -17077.395    527.60717     33091.62 
 4170000    297.48385   -19667.781    547.68253   -17168.969   -420.76939    32811.095 
 4180000    300.85737   -19692.612    547.68299   -17171.673    -412.1649    32849.231 
 4190000    300.57514    -19672.69     547.6798   -17153.605   -342.98051    33228.084 
 4200000     290.4607   -19589.979    547.67959   -17137.233   -238.29984    32842.575 
 4210000    304.49322   -19622.579    547.67677   -17077.799    -182.9266    32913.467 
 4220000    293.04161   -19638.026    547.67196    -17168.36    292.11098    32894.935 
 4230000    297.52959   -19599.736     547.6783   -17100.628    253.56711    32958.532 
 4240000    298.15047   -19684.438    547.68506   -17181.251    1214.3494    32747.919 
 4250000    293.08895   -19627.147    547.68285   -17157.159     489.6835    33034.536 
 4260000    291.17544   -19545.778    547.67979   -17088.343    103.03723    32851.894 
 4270000     302.6679   -19583.016    547.68257   -17050.203   -183.26664     33073.92 
 4280000    304.30472   -19751.666     547.6791    -17208.12    327.72149     32953.88 
 4290000    302.05777   -19584.585     547.6802   -17055.775    492.36149    32706.512 
 4300000     303.6413   -19688.907    547.68186    -17149.71    15.565787    32890.059 
 4310000    302.61909    -19664.24    547.67997    -17131.75    15.676595     32623.51 
 4320000     295.1751   -19583.563    547.68217   -17099.894   -1062.2638    32807.661 
 4330000     295.8529   -19580.763    547.68016    -17092.65    204.92327     32956.78 
 4340000    301.12873   -19558.194    547.68664   -17035.471   -831.76261     33175.78 
 4350000    293.27912   -19664.478    547.67881   -17193.247    453.43464    32595.544 
 4360000    292.26942   -19481.711     547.6802   -17017.101   -427.53376    33090.706 
 4370000    295.02046   -19689.052    547.68004   -17206.399    605.39136    32754.387 
 4380000    294.75139   -19628.983    547.68098   -17148.094    -146.6868    32844.029 
 4390000    310.63297   -19654.491    547.68124   -17069.438    481.09819    33096.143 
 4400000    290.97573   -19612.528    547.67952   -17156.404    212.24142    32718.339 
 4410000    297.20787     -19618.9    547.68973    -17121.89    638.05929    32497.261 
 4420000    294.99276   -19624.975    547.67917   -17142.504    574.59265    33071.452 
 4430000    297.74259   -19599.117    547.68217   -17098.608     332.0218    32763.318 
 4440000    296.25199   -19598.572    547.68522   -17107.837   -578.46985    32911.066 
 4450000    299.64705    -19766.06    547.67951   -17253.063   -434.80642    32727.312 
 4460000    296.40771   -19636.521    547.67975   -17144.769    191.98259    32776.611 
 4470000    287.58126   -19671.939    547.67642   -17238.082   -1052.8677    33056.911 
 4480000    298.77521   -19631.598    547.68671   -17124.311    227.08797    32559.245 
 4490000    301.57543   -19639.574    547.67556   -17113.933    187.22308    32689.446 
 4500000    286.79108   -19648.581    547.68326   -17219.899   -551.26232    33264.096 
 4510000    294.74539   -19657.873    547.68526   -17177.019    73.815873     33060.74 
 4520000    296.71332   -19653.594    547.67739   -17159.841     245.0388    32588.194 
 4530000    295.18091   -19597.474     547.6836   -17113.765   -93.568428    32714.684 
 4540000    294.10397   -19704.767    547.68024   -17228.125   -81.559863    32952.549 
 4550000    300.36528   -19621.635    547.68599   -17103.921   -711.57021    32840.242 
 4560000    293.45648   -19575.889    547.68547   -17103.488    283.11613    32901.227 
 4570000     307.0977   -19602.206    547.67967   -17040.342   -782.35512     33025.93 
 4580000    298.44794   -19576.809    547.67835   -17071.677     33.47187    32734.743 
 4590000    300.71976    -19620.17    547.67738   -17100.139    41.049883    32988.704 
 4600000    306.54974   -19701.358    547.68201   -17143.085    214.59595    32720.284 
 4610000    299.28558    -19551.23    547.68127   -17040.602    111.39042    32748.897 
 4620000    303.93783   -19637.469    547.69169   -17096.318    -244.3673    32989.727 
 4630000    293.24855   -19522.418    547.67695    -17051.39    365.41982    33069.626 
 4640000    300.40167   -19701.538    547.67888   -17183.592   -60.969725    32525.166 
 4650000     303.0591   -19643.558    547.68163    -17108.18   -85.880193    32558.925 
 4660000    293.81582   -19694.747    547.67839   -17219.997   -596.47432    32715.296 
 4670000     295.8705   -19557.786     547.6918   -17069.546    544.24332    32670.373 
 4680000    293.37703   -19627.384    547.68225   -17155.507   -232.21817    33027.661 
 4690000    300.26317   -19613.754    547.67967   -17096.716     162.1711    33171.171 
 4700000    296.36873    -19706.94    547.66719   -17215.457    258.32054    32604.425 
 4710000    299.52227   -19531.829    547.68197   -17019.647   -249.44754    33255.481 
 4720000    289.89523   -19703.555    547.68336   -17254.514    411.12789    32469.357 
 4730000     294.8451   -19684.777    547.68035   -17203.274    340.24847    32678.578 
 4740000    312.83596   -19675.575    547.68803   -17076.066   -438.54576    33086.093 
 4750000     293.5367   -19610.959    547.68011   -17138.037   -702.46901    32997.412 
 4760000    303.08558   -19579.329    547.68142   -17043.778    784.84357    32787.752 
 4770000    296.90872    -19620.46    547.68495   -17125.418    928.23444    32493.623 
 4780000    291.09942   -19575.596    547.68109   -17118.659   -509.26819     33351.93 
 4790000    294.23934   -19644.803     547.6832    -17167.27    227.35905    32876.119 
 4800000    302.95738   -19580.218    547.67975   -17045.509   -392.41876    33080.418 
 4810000    295.30422   -19694.589       547.68   -17210.075    -313.3026    32749.183 
 4820000    296.63929   -19639.905    547.67723   -17146.637   -312.92793    32825.018 
 4830000    295.12683   -19610.667    547.68142   -17127.315    399.02483    32886.926 
 4840000    293.67293   -19737.252    547.67731    -17263.44    178.73468    32632.043 
 4850000    298.55118   -19652.998     547.6814   -17147.186   -1045.9159    32985.114 
 4860000    292.15582   -19541.077    547.67576   -17077.216   -348.42098    33151.854 
 4870000    293.31995   -19643.229    547.68026   -17171.729   -85.744424    32889.856 
 4880000    292.72793   -19652.883    547.68018   -17185.266   -294.00248    32985.702 
 4890000    300.41348   -19598.266    547.67779   -17080.244     54.24878     32895.48 
 4900000    297.85705   -19618.734    547.67561   -17117.481    23.593964    32666.717 
 4910000    296.54426   -19610.305    547.71547   -17117.622   -113.10631    32902.668 
 4920000    301.53356   -19615.396    547.67792   -17090.027    527.60311    32633.149 
 4930000    299.41583   -19648.762    547.67868   -17137.282   -232.51099    32805.601 
 4940000    295.34849   -19601.342    547.67538   -17116.542   -373.85887    32646.249 
 4950000    299.67415   -19554.741    547.67944   -17041.566    486.96347    32728.989 
 4960000    281.74231   -19567.803    547.67757    -17172.24   -26.178243     32927.69 
 4970000    302.26898   -19539.861    547.68024   -17009.666    55.757477    32904.921 
 4980000    305.53072   -19572.293    547.66892   -17020.717   -254.31616    32888.408 
 4990000      296.662   -19609.833    547.68574   -17116.407   -191.37901    33021.152 
 5000000    300.79512   -19601.782    547.68702   -17081.247   -440.30123    33114.466 
Loop time of 7387.34 on 128 procs for 5000000 steps with 3384 atoms

Performance: 58.478 ns/day, 0.410 hours/ns, 676.833 timesteps/s
99.3% CPU use with 128 MPI tasks x no OpenMP threads

MPI task timing breakdown:
Section |  min time  |  avg time  |  max time  |%varavg| %total
---------------------------------------------------------------
Pair    | 1386.9     | 1669.8     | 1935.1     | 322.2 | 22.60
Bond    | 5.6555     | 5.8966     | 6.5014     |   6.1 |  0.08
Kspace  | 2242.3     | 2492       | 2746.1     | 257.4 | 33.73
Neigh   | 217.93     | 228.82     | 239.75     |  57.4 |  3.10
Comm    | 589.05     | 662.25     | 744.48     | 140.0 |  8.96
Output  | 0.046216   | 0.094717   | 0.095959   |   1.4 |  0.00
Modify  | 2184.9     | 2237.5     | 2272.6     |  43.1 | 30.29
Other   |            | 90.91      |            |       |  1.23

Nlocal:    26.4375 ave 34 max 18 min
Histogram: 3 5 11 24 9 27 17 15 14 3
Nghost:    3097.43 ave 3124 max 3074 min
Histogram: 4 12 9 22 22 22 19 11 3 4
Neighs:    10538.4 ave 14936 max 6051 min
Histogram: 1 4 13 21 24 24 22 13 4 2

Total # of neighbors = 1348910
Ave neighs/atom = 398.614
Ave special neighs/atom = 2.12766
Neighbor list builds = 579486
Dangerous builds = 0
reset_timestep 0

#################### 3) Initializing the NVT ensemble ####################
# scaling the size of the system to the average volume
variable sidesize equal (f_VoluAve^(1.0/3.0))    # get the volume
variable xlow equal xlo
variable ylow equal ylo
variable zlow equal zlo
variable xhig equal (xlo+${sidesize})
variable xhig equal (xlo+32.0414536887371)
variable yhig equal (ylo+${sidesize})
variable yhig equal (ylo+32.0414536887371)
variable zhig equal (zlo+${sidesize})
variable zhig equal (zlo+32.0414536887371)
change_box all x final ${xlow} ${xhig} y final ${ylow} ${yhig} z final ${zlow} ${zhig}
change_box all x final 0.584602155304896 ${xhig} y final ${ylow} ${yhig} z final ${zlow} ${zhig}
change_box all x final 0.584602155304896 32.626055844042 y final ${ylow} ${yhig} z final ${zlow} ${zhig}
change_box all x final 0.584602155304896 32.626055844042 y final 0.584602155304896 ${yhig} z final ${zlow} ${zhig}
change_box all x final 0.584602155304896 32.626055844042 y final 0.584602155304896 32.626055844042 z final ${zlow} ${zhig}
change_box all x final 0.584602155304896 32.626055844042 y final 0.584602155304896 32.626055844042 z final 0.584602155304896 ${zhig}
change_box all x final 0.584602155304896 32.626055844042 y final 0.584602155304896 32.626055844042 z final 0.584602155304896 32.626055844042
  orthogonal box = (0.584602 0.584602 0.584602) to (32.6261 32.697 32.697)
  orthogonal box = (0.584602 0.584602 0.584602) to (32.6261 32.6261 32.697)
  orthogonal box = (0.584602 0.584602 0.584602) to (32.6261 32.6261 32.6261)
unfix VoluAve
unfix TEAve1
unfix PEAve1
unfix TempAve1
unfix PressAve1


# changing the ensemble to NVT
unfix integrate
fix integrate all rigid/nvt/small molecule temp ${Temp} ${Temp} 100.0
fix integrate all rigid/nvt/small molecule temp 298 ${Temp} 100.0
fix integrate all rigid/nvt/small molecule temp 298 298 100.0
1110 rigid bodies with 3384 atoms
  1.49041 = max distance from body owner to body atom

# Initializing the whole system with very small timesteps in the NVT ensemble
timestep 0.001
run ${Ninvtpre}
run 10000
PPPM initialization ...
  extracting TIP4P info from pair style
  using 12-bit tables for long-range coulomb (../kspace.cpp:321)
  G vector (1/distance) = 0.315014
  grid = 32 32 32
  stencil order = 5
  estimated absolute RMS force accuracy = 0.00331942
  estimated relative force accuracy = 9.99633e-06
  using double precision FFTs
  3d grid and FFT values/proc = 2475 256
Per MPI rank memory allocation (min/avg/max) = 14.1 | 14.1 | 14.11 Mbytes
Step Temp E_pair E_mol TotEng Press 
       0    300.78001   -19498.459    812.50799   -16713.202    13896.434 
   10000    303.82192   -19518.502    812.50799   -16713.294    1102.8077 
Loop time of 10.7999 on 128 procs for 10000 steps with 3384 atoms

Performance: 0.080 ns/day, 299.997 hours/ns, 925.934 timesteps/s
99.4% CPU use with 128 MPI tasks x no OpenMP threads

MPI task timing breakdown:
Section |  min time  |  avg time  |  max time  |%varavg| %total
---------------------------------------------------------------
Pair    | 1.5102     | 2.5467     | 3.5436     |  23.7 | 23.58
Bond    | 0.0054941  | 0.0095553  | 0.015232   |   2.1 |  0.09
Kspace  | 2.9827     | 3.9591     | 4.9887     |  18.7 | 36.66
Neigh   | 0.00032493 | 0.00034346 | 0.00036381 |   0.0 |  0.00
Comm    | 1.0457     | 1.1395     | 1.2306     |   3.5 | 10.55
Output  | 9.3145e-05 | 9.9109e-05 | 0.00010407 |   0.0 |  0.00
Modify  | 2.9174     | 3.0174     | 3.0932     |   2.3 | 27.94
Other   |            | 0.1271     |            |       |  1.18

Nlocal:    26.4375 ave 34 max 17 min
Histogram: 1 3 11 10 24 31 10 21 14 3
Nghost:    3112.17 ave 3139 max 3082 min
Histogram: 5 7 12 10 22 19 22 16 9 6
Neighs:    10608.9 ave 14330 max 6280 min
Histogram: 2 5 9 16 20 25 23 17 6 5

Total # of neighbors = 1357945
Ave neighs/atom = 401.284
Ave special neighs/atom = 2.12766
Neighbor list builds = 1
Dangerous builds = 0
timestep 0.01
run ${Ninvtpre}
run 10000
PPPM initialization ...
  extracting TIP4P info from pair style
  using 12-bit tables for long-range coulomb (../kspace.cpp:321)
  G vector (1/distance) = 0.315014
  grid = 32 32 32
  stencil order = 5
  estimated absolute RMS force accuracy = 0.00331942
  estimated relative force accuracy = 9.99633e-06
  using double precision FFTs
  3d grid and FFT values/proc = 2475 256
Per MPI rank memory allocation (min/avg/max) = 14.1 | 14.1 | 14.11 Mbytes
Step Temp E_pair E_mol TotEng Press 
   10000    303.82192   -19518.502    812.50799   -16713.294    13597.276 
   20000    293.71583   -19503.624    812.50799     -16764.7    398.06693 
Loop time of 10.8882 on 128 procs for 10000 steps with 3384 atoms

Performance: 0.794 ns/day, 30.245 hours/ns, 918.426 timesteps/s
99.4% CPU use with 128 MPI tasks x no OpenMP threads

MPI task timing breakdown:
Section |  min time  |  avg time  |  max time  |%varavg| %total
---------------------------------------------------------------
Pair    | 1.581      | 2.5363     | 3.4232     |  21.4 | 23.29
Bond    | 0.0060265  | 0.0095565  | 0.015247   |   1.9 |  0.09
Kspace  | 3.1391     | 3.9973     | 4.9257     |  16.7 | 36.71
Neigh   | 0.0042385  | 0.004357   | 0.0044864  |   0.1 |  0.04
Comm    | 1.0721     | 1.1439     | 1.2126     |   2.8 | 10.51
Output  | 8.0812e-05 | 8.8606e-05 | 9.6981e-05 |   0.0 |  0.00
Modify  | 2.9709     | 3.0467     | 3.1033     |   1.8 | 27.98
Other   |            | 0.1499     |            |       |  1.38

Nlocal:    26.4375 ave 35 max 19 min
Histogram: 3 10 8 31 16 28 19 4 6 3
Nghost:    3111.79 ave 3150 max 3074 min
Histogram: 4 5 12 21 20 27 15 13 9 2
Neighs:    10611.4 ave 15307 max 7173 min
Histogram: 3 13 13 27 37 18 10 1 3 3

Total # of neighbors = 1358258
Ave neighs/atom = 401.376
Ave special neighs/atom = 2.12766
Neighbor list builds = 12
Dangerous builds = 0
timestep 0.1
run ${Ninvtpre}
run 10000
PPPM initialization ...
  extracting TIP4P info from pair style
  using 12-bit tables for long-range coulomb (../kspace.cpp:321)
  G vector (1/distance) = 0.315014
  grid = 32 32 32
  stencil order = 5
  estimated absolute RMS force accuracy = 0.00331942
  estimated relative force accuracy = 9.99633e-06
  using double precision FFTs
  3d grid and FFT values/proc = 2475 256
Per MPI rank memory allocation (min/avg/max) = 14.1 | 14.1 | 14.11 Mbytes
Step Temp E_pair E_mol TotEng Press 
   20000    293.71583   -19503.624    812.50799     -16764.7    2081.8565 
   30000    301.98492   -19596.146    812.50799   -16802.987   -539.68226 
Loop time of 10.8179 on 128 procs for 10000 steps with 3384 atoms

Performance: 7.987 ns/day, 3.005 hours/ns, 924.397 timesteps/s
99.4% CPU use with 128 MPI tasks x no OpenMP threads

MPI task timing breakdown:
Section |  min time  |  avg time  |  max time  |%varavg| %total
---------------------------------------------------------------
Pair    | 1.8333     | 2.5409     | 3.3085     |  19.5 | 23.49
Bond    | 0.0061732  | 0.0095618  | 0.014733   |   1.8 |  0.09
Kspace  | 3.1662     | 3.8945     | 4.6021     |  15.5 | 36.00
Neigh   | 0.042185   | 0.044279   | 0.045314   |   0.3 |  0.41
Comm    | 1.0635     | 1.1436     | 1.2051     |   3.0 | 10.57
Output  | 7.5641e-05 | 8.0431e-05 | 8.5149e-05 |   0.0 |  0.00
Modify  | 2.9711     | 3.0618     | 3.1215     |   2.0 | 28.30
Other   |            | 0.1231     |            |       |  1.14

Nlocal:    26.4375 ave 34 max 17 min
Histogram: 3 1 11 9 29 25 8 27 13 2
Nghost:    3114.42 ave 3152 max 3083 min
Histogram: 4 8 19 24 22 21 12 9 8 1
Neighs:    10611.7 ave 14712 max 6668 min
Histogram: 4 6 10 18 33 18 20 13 2 4

Total # of neighbors = 1358303
Ave neighs/atom = 401.39
Ave special neighs/atom = 2.12766
Neighbor list builds = 121
Dangerous builds = 0
timestep 0.2
run ${Ninvtpre}
run 10000
PPPM initialization ...
  extracting TIP4P info from pair style
  using 12-bit tables for long-range coulomb (../kspace.cpp:321)
  G vector (1/distance) = 0.315014
  grid = 32 32 32
  stencil order = 5
  estimated absolute RMS force accuracy = 0.00331942
  estimated relative force accuracy = 9.99633e-06
  using double precision FFTs
  3d grid and FFT values/proc = 2475 256
Per MPI rank memory allocation (min/avg/max) = 14.1 | 14.1 | 14.11 Mbytes
Step Temp E_pair E_mol TotEng Press 
   30000    301.98492   -19596.146    812.50799   -16802.987    568.38618 
   40000    297.45566   -19492.028    812.50799   -16728.575    655.38103 
Loop time of 11.1793 on 128 procs for 10000 steps with 3384 atoms

Performance: 15.457 ns/day, 1.553 hours/ns, 894.514 timesteps/s
99.4% CPU use with 128 MPI tasks x no OpenMP threads

MPI task timing breakdown:
Section |  min time  |  avg time  |  max time  |%varavg| %total
---------------------------------------------------------------
Pair    | 1.6824     | 2.5473     | 3.2537     |  19.4 | 22.79
Bond    | 0.0057854  | 0.0095948  | 0.014656   |   1.6 |  0.09
Kspace  | 3.3183     | 4.0123     | 4.8495     |  15.2 | 35.89
Neigh   | 0.086814   | 0.089714   | 0.091589   |   0.3 |  0.80
Comm    | 1.0787     | 1.1571     | 1.2184     |   2.9 | 10.35
Output  | 8.4158e-05 | 9.0259e-05 | 9.4667e-05 |   0.0 |  0.00
Modify  | 3.1554     | 3.2378     | 3.2946     |   1.8 | 28.96
Other   |            | 0.1253     |            |       |  1.12

Nlocal:    26.4375 ave 40 max 16 min
Histogram: 1 1 22 26 32 32 11 1 1 1
Nghost:    3124.32 ave 3168 max 3089 min
Histogram: 9 10 13 20 25 18 17 11 4 1
Neighs:    10607.1 ave 15995 max 6283 min
Histogram: 2 8 18 24 31 20 14 7 3 1

Total # of neighbors = 1357706
Ave neighs/atom = 401.213
Ave special neighs/atom = 2.12766
Neighbor list builds = 246
Dangerous builds = 0
timestep 0.5
run ${Ninvtpre}
run 10000
PPPM initialization ...
  extracting TIP4P info from pair style
  using 12-bit tables for long-range coulomb (../kspace.cpp:321)
  G vector (1/distance) = 0.315014
  grid = 32 32 32
  stencil order = 5
  estimated absolute RMS force accuracy = 0.00331942
  estimated relative force accuracy = 9.99633e-06
  using double precision FFTs
  3d grid and FFT values/proc = 2475 256
Per MPI rank memory allocation (min/avg/max) = 14.1 | 14.1 | 14.11 Mbytes
Step Temp E_pair E_mol TotEng Press 
   40000    297.45566   -19492.028    812.50799   -16728.575    1562.5659 
   50000    303.21635   -19437.336    812.50799     -16636.1     463.3547 
Loop time of 11.9344 on 128 procs for 10000 steps with 3384 atoms

Performance: 36.198 ns/day, 0.663 hours/ns, 837.912 timesteps/s
99.4% CPU use with 128 MPI tasks x no OpenMP threads

MPI task timing breakdown:
Section |  min time  |  avg time  |  max time  |%varavg| %total
---------------------------------------------------------------
Pair    | 1.9195     | 2.5585     | 3.2189     |  16.3 | 21.44
Bond    | 0.0070639  | 0.0095928  | 0.01427    |   1.5 |  0.08
Kspace  | 3.4243     | 4.0682     | 4.7017     |  12.9 | 34.09
Neigh   | 0.21874    | 0.45359    | 0.46927    |   7.7 |  3.80
Comm    | 1.1457     | 1.2754     | 1.3901     |   5.6 | 10.69
Output  | 9.1751e-05 | 9.757e-05  | 0.00010481 |   0.0 |  0.00
Modify  | 3.3299     | 3.4437     | 3.7549     |   4.0 | 28.86
Other   |            | 0.1254     |            |       |  1.05

Nlocal:    26.4375 ave 35 max 18 min
Histogram: 2 5 16 12 29 30 11 18 4 1
Nghost:    3114.85 ave 3148 max 3077 min
Histogram: 1 3 17 10 27 23 18 15 4 10
Neighs:    10610.9 ave 13779 max 6478 min
Histogram: 1 6 8 13 22 25 19 13 13 8

Total # of neighbors = 1358196
Ave neighs/atom = 401.358
Ave special neighs/atom = 2.12766
Neighbor list builds = 616
Dangerous builds = 0
reset_timestep 0

# continuing the initialization with the final value of timestep
timestep ${tstep}
timestep 1
run ${Ninvt}
run 1000000
PPPM initialization ...
  extracting TIP4P info from pair style
  using 12-bit tables for long-range coulomb (../kspace.cpp:321)
  G vector (1/distance) = 0.315014
  grid = 32 32 32
  stencil order = 5
  estimated absolute RMS force accuracy = 0.00331942
  estimated relative force accuracy = 9.99633e-06
  using double precision FFTs
  3d grid and FFT values/proc = 2475 256
Per MPI rank memory allocation (min/avg/max) = 14.1 | 14.1 | 14.11 Mbytes
Step Temp E_pair E_mol TotEng Press 
       0    303.21635   -19437.336    812.50799     -16636.1    1220.6042 
   10000    297.93755    -19464.71    812.50799   -16698.096    174.12295 
   20000    293.33439   -19555.748    812.50799   -16819.325   -109.78513 
   30000    293.64106     -19442.1    812.50799   -16703.666    67.003344 
   40000     296.9515   -19535.297    812.50799    -16775.15    289.42357 
   50000    307.18617    -19573.36    812.50799   -16746.087    -72.28096 
   60000    298.46104   -19583.621    812.50799   -16813.574    828.84532 
   70000    287.23068   -19504.452    812.50799   -16808.062   -354.57344 
   80000    298.24654   -19548.976    812.50799   -16780.335    171.76459 
   90000    290.21807   -19639.565    812.50799   -16923.581   -818.68347 
  100000    287.57364   -19503.397    812.50799   -16804.758    619.26486 
  110000    294.61382    -19519.24    812.50799   -16774.426     1036.862 
  120000    304.80902   -19574.008    812.50799   -16762.326   -131.01073 
  130000    295.57725   -19494.429    812.50799   -16743.296    5.5891739 
  140000    291.24179   -19493.529    812.50799   -16770.831   -84.124089 
  150000    301.83076   -19603.865    812.50799   -16811.716   -230.31007 
  160000    293.46161   -19490.485    812.50799   -16753.228    522.19153 
  170000    299.21847    -19515.72    812.50799   -16740.705   -13.607747 
  180000    303.25968   -19578.304    812.50799   -16776.784    704.88186 
  190000    289.17125   -19489.068    812.50799   -16779.951    392.42882 
  200000    289.23127   -19632.508    812.50799   -16922.997    241.50896 
  210000    299.32049   -19482.304    812.50799    -16706.62    1109.8979 
  220000    294.65103   -19540.277    812.50799   -16795.219   -165.11598 
  230000    299.84212   -19580.623    812.50799   -16801.518    150.56328 
  240000    302.15706   -19463.407    812.50799   -16669.119   -369.92501 
  250000    296.80313   -19467.889    812.50799   -16708.716   -390.61464 
  260000    293.27496    -19579.45    812.50799   -16843.417   -134.23761 
  270000    303.95886   -19545.442    812.50799   -16739.336    465.46551 
  280000    293.98542   -19527.849    812.50799   -16787.156    -200.1402 
  290000    289.90649   -19591.356    812.50799   -16877.417    136.76336 
  300000    295.06364   -19482.296    812.50799   -16734.531   -176.65113 
  310000     306.0453   -19602.821    812.50799    -16783.03    3.1109405 
  320000    303.86666   -19443.122    812.50799   -16637.621   -296.57842 
  330000    297.06419   -19675.643    812.50799   -16914.758    255.48457 
  340000      304.659    -19514.36    812.50799   -16703.662   -503.28253 
  350000    287.73528   -19519.644    812.50799   -16819.945   -612.17598 
  360000    294.09264   -19528.147    812.50799   -16786.752   -28.853915 
  370000      295.482   -19578.377    812.50799   -16827.868   -281.88393 
  380000    290.24439   -19463.208    812.50799   -16747.052   -443.49614 
  390000      295.499   -19553.335    812.50799   -16802.715    177.73602 
  400000    301.57915   -19487.475    812.50799   -16696.977   -555.59434 
  410000    300.05947   -19533.043    812.50799   -16752.512   -1310.2221 
  420000    297.75544   -19433.669    812.50799    -16668.25   -72.499571 
  430000    300.97429   -19523.582    812.50799   -16737.051   -425.00322 
  440000    299.77886   -19513.939    812.50799   -16735.249    691.36393 
  450000    302.01633   -19604.732    812.50799   -16811.367   -63.046314 
  460000    299.65594   -19506.322    812.50799   -16728.438    322.11597 
  470000    303.47649   -19630.565    812.50799   -16827.623   -724.16125 
  480000    295.66221    -19447.46    812.50799    -16695.77    528.49174 
  490000    299.28193   -19517.676    812.50799   -16742.245    434.94819 
  500000    291.51871   -19545.252    812.50799   -16820.738   -40.395859 
  510000    296.47864   -19566.956    812.50799   -16809.912   -279.70139 
  520000    295.68137   -19475.354    812.50799   -16723.539    933.00452 
  530000    299.24109   -19495.842    812.50799   -16720.679   -1615.7179 
  540000    303.58142   -19498.062    812.50799   -16694.431    999.54416 
  550000    297.51347   -19485.559    812.50799   -16721.727    176.04833 
  560000    311.99444   -19426.947    812.50799   -16568.138    111.79415 
  570000    304.43721   -19516.954    812.50799   -16707.711    778.26717 
  580000    297.98878   -19456.503    812.50799   -16689.554   -697.23595 
  590000    305.00567    -19524.76    812.50799   -16711.788   -133.65712 
  600000    294.90936   -19511.324    812.50799   -16764.572   -799.55195 
  610000    305.51698   -19503.723    812.50799   -16687.397   -295.55071 
  620000    304.05236   -19549.891    812.50799   -16743.172    1044.8437 
  630000    300.94657   -19480.602    812.50799   -16694.253    52.689376 
  640000    298.95308   -19493.444    812.50799    -16720.17   -233.47644 
  650000     282.1371   -19453.414    812.50799   -16790.432    130.34218 
  660000    306.51537   -19540.884    812.50799   -16718.011   -274.36807 
  670000    296.01231   -19477.075    812.50799   -16723.089   -125.02199 
  680000    295.68539   -19452.965    812.50799   -16701.123    120.48546 
  690000    294.19908    -19468.17    812.50799   -16726.076    -678.2142 
  700000    301.35716   -19590.378    812.50799   -16801.336   -287.32397 
  710000    294.82586   -19535.181    812.50799   -16788.977    152.60716 
  720000    300.69896   -19584.621    812.50799   -16799.896   -156.17774 
  730000    303.78653   -19506.056    812.50799    -16701.08    22.688574 
  740000     303.9649   -19474.511    812.50799   -16668.365   -200.11008 
  750000    295.34259   -19558.131    812.50799   -16808.537   -42.546522 
  760000    297.33538   -19650.599    812.50799   -16887.935   -190.17448 
  770000    297.53069   -19557.656    812.50799   -16793.711    262.17188 
  780000    300.60298   -19586.272    812.50799   -16802.176   -423.84707 
  790000     296.3565   -19506.581    812.50799   -16750.338   -634.81339 
  800000    298.60073   -19492.036    812.50799   -16721.073    527.71153 
  810000    298.57653   -19430.091    812.50799   -16659.286   -144.87484 
  820000    308.44794   -19504.374    812.50799   -16668.826    17.734532 
  830000    308.77285   -19456.894    812.50799   -16619.214   -1105.8196 
  840000     293.1495   -19513.644    812.50799   -16778.434    814.25684 
  850000    293.30207   -19546.365    812.50799   -16810.154    80.915352 
  860000    294.36578   -19482.459    812.50799   -16739.272   -347.45026 
  870000    298.36038    -19566.73    812.50799   -16797.343    399.53063 
  880000    296.63205   -19545.092    812.50799   -16787.041    -670.6873 
  890000     287.4097   -19391.364    812.50799     -16693.8    -150.2052 
  900000     299.4835   -19414.687    812.50799   -16637.934    181.47866 
  910000    299.74996    -19527.73    812.50799   -16749.229     852.6297 
  920000    294.92464   -19562.784    812.50799   -16815.932   -258.76519 
  930000    296.00178   -19600.024    812.50799   -16846.107     372.9739 
  940000    285.55543   -19561.264    812.50799   -16875.862   -305.55176 
  950000    286.53151   -19501.097    812.50799   -16809.293    17.890052 
  960000    298.03344   -19491.351    812.50799   -16724.109    664.66849 
  970000    300.11395   -19491.155    812.50799   -16710.267   -394.64107 
  980000    301.18467   -19548.491    812.50799    -16760.58   -18.194354 
  990000    295.16001   -19499.678    812.50799   -16751.281    634.78638 
 1000000    288.08058   -19567.885    812.50799   -16865.921    586.26616 
Loop time of 1234.96 on 128 procs for 1000000 steps with 3384 atoms

Performance: 69.962 ns/day, 0.343 hours/ns, 809.746 timesteps/s
99.4% CPU use with 128 MPI tasks x no OpenMP threads

MPI task timing breakdown:
Section |  min time  |  avg time  |  max time  |%varavg| %total
---------------------------------------------------------------
Pair    | 216.69     | 256.91     | 302.49     | 125.4 | 20.80
Bond    | 0.87686    | 0.95976    | 1.071      |   3.8 |  0.08
Kspace  | 386.67     | 429.54     | 471.29     |  98.2 | 34.78
Neigh   | 46.573     | 47.377     | 48.388     |   7.2 |  3.84
Comm    | 125.05     | 132.27     | 140.46     |  27.8 | 10.71
Output  | 0.010412   | 0.010753   | 0.01116    |   0.2 |  0.00
Modify  | 345.27     | 353.4      | 359.06     |  17.1 | 28.62
Other   |            | 14.49      |            |       |  1.17

Nlocal:    26.4375 ave 34 max 19 min
Histogram: 4 5 13 13 38 13 19 4 15 4
Nghost:    3106.48 ave 3130 max 3070 min
Histogram: 2 6 5 3 7 27 32 27 15 4
Neighs:    10613.4 ave 15189 max 6673 min
Histogram: 5 5 18 26 22 22 13 9 4 4

Total # of neighbors = 1358512
Ave neighs/atom = 401.452
Ave special neighs/atom = 2.12766
Neighbor list builds = 123548
Dangerous builds = 0
reset_timestep 0

#################### 4) Obtaining average total energy in NVT #####################
variable T1 equal temp
variable TE1 equal etotal
variable KE1 equal ke
variable PE1 equal pe
fix Tave1 all ave/time ${Nrun} 1 ${Nrun} v_T1
fix Tave1 all ave/time 20000000 1 ${Nrun} v_T1
fix Tave1 all ave/time 20000000 1 20000000 v_T1
fix TEave1 all ave/time 1 ${Nrun} ${Nrun} v_TE1
fix TEave1 all ave/time 1 20000000 ${Nrun} v_TE1
fix TEave1 all ave/time 1 20000000 20000000 v_TE1
fix KEave1 all ave/time ${Nrun} 1 ${Nrun} v_KE1
fix KEave1 all ave/time 20000000 1 ${Nrun} v_KE1
fix KEave1 all ave/time 20000000 1 20000000 v_KE1
fix PEave1 all ave/time ${Nrun} 1 ${Nrun} v_PE1
fix PEave1 all ave/time 20000000 1 ${Nrun} v_PE1
fix PEave1 all ave/time 20000000 1 20000000 v_PE1


dump trjectory all xyz ${Nd} movie.xyz
dump trjectory all xyz 2000000 movie.xyz
dump_modify trjectory element O H Na M B OH H L

# computing average total energy, pontential energy, temperature, and pressure over time
variable TotEn equal etotal
fix TEAve all ave/time ${Ne} ${Nr} ${Nf} v_TotEn file TotalE.dat
fix TEAve all ave/time 10 ${Nr} ${Nf} v_TotEn file TotalE.dat
fix TEAve all ave/time 10 1000 ${Nf} v_TotEn file TotalE.dat
fix TEAve all ave/time 10 1000 10000 v_TotEn file TotalE.dat

variable PotEn equal pe
fix PEAve all ave/time ${Ne} ${Nr} ${Nf} v_PotEn file PotenE.dat
fix PEAve all ave/time 10 ${Nr} ${Nf} v_PotEn file PotenE.dat
fix PEAve all ave/time 10 1000 ${Nf} v_PotEn file PotenE.dat
fix PEAve all ave/time 10 1000 10000 v_PotEn file PotenE.dat

compute T all temp
fix TempAve all ave/time ${Ne} ${Nr} ${Nf} c_T file temperature.dat
fix TempAve all ave/time 10 ${Nr} ${Nf} c_T file temperature.dat
fix TempAve all ave/time 10 1000 ${Nf} c_T file temperature.dat
fix TempAve all ave/time 10 1000 10000 c_T file temperature.dat

compute P all pressure T
fix PressAve all ave/time ${Ne} ${Nr} ${Nf} c_P file pressure.dat
fix PressAve all ave/time 10 ${Nr} ${Nf} c_P file pressure.dat
fix PressAve all ave/time 10 1000 ${Nf} c_P file pressure.dat
fix PressAve all ave/time 10 1000 10000 c_P file pressure.dat


# computing self-diffusion and Onsager coefficients using the OCTP plugin
compute positions all position
fix f3 all ordern diffusivity ${Ndiff} ${Nwrit} c_positions nb ${nb} nbe ${nbe} file diffself.dat diffonsag.dat title "Water at 298 K and 1 atm"
fix f3 all ordern diffusivity 1000 ${Nwrit} c_positions nb ${nb} nbe ${nbe} file diffself.dat diffonsag.dat title "Water at 298 K and 1 atm"
fix f3 all ordern diffusivity 1000 100000 c_positions nb ${nb} nbe ${nbe} file diffself.dat diffonsag.dat title "Water at 298 K and 1 atm"
fix f3 all ordern diffusivity 1000 100000 c_positions nb 10 nbe ${nbe} file diffself.dat diffonsag.dat title "Water at 298 K and 1 atm"
fix f3 all ordern diffusivity 1000 100000 c_positions nb 10 nbe 20 file diffself.dat diffonsag.dat title "Water at 298 K and 1 atm"


# computing shear and bulk viscosities  using the OCTP plugin
fix f1 all ordern viscosity ${Nvisc} ${Nwrit} c_P nb ${nb} nbe ${nbe} file viscosity.dat title "Water at 298 K and 1 atm"
fix f1 all ordern viscosity 5 ${Nwrit} c_P nb ${nb} nbe ${nbe} file viscosity.dat title "Water at 298 K and 1 atm"
fix f1 all ordern viscosity 5 100000 c_P nb ${nb} nbe ${nbe} file viscosity.dat title "Water at 298 K and 1 atm"
fix f1 all ordern viscosity 5 100000 c_P nb 10 nbe ${nbe} file viscosity.dat title "Water at 298 K and 1 atm"
fix f1 all ordern viscosity 5 100000 c_P nb 10 nbe 20 file viscosity.dat title "Water at 298 K and 1 atm"


# computing the RDF for all group pairs
compute rdfs all rdf/ext Nbin ${binnum} Nwrite ${Nrdfw} file rdf.dat
compute rdfs all rdf/ext Nbin 2000 Nwrite ${Nrdfw} file rdf.dat
compute rdfs all rdf/ext Nbin 2000 Nwrite 1000 file rdf.dat
fix f4 all ave/time 1 1 ${Nrdfe} c_rdfs
fix f4 all ave/time 1 1 100 c_rdfs


# Thermo style for outputing system properties to the log file
thermo_style custom step temp f_TempAve press f_PressAve pe ke etotal
thermo_modify flush yes

#thermo 1
run ${Nrun}
run 20000000
PPPM initialization ...
  extracting TIP4P info from pair style
  using 12-bit tables for long-range coulomb (../kspace.cpp:321)
  G vector (1/distance) = 0.315014
  grid = 32 32 32
  stencil order = 5
  estimated absolute RMS force accuracy = 0.00331942
  estimated relative force accuracy = 9.99633e-06
  using double precision FFTs
  3d grid and FFT values/proc = 2475 256
Per MPI rank memory allocation (min/avg/max) = 15.12 | 15.12 | 15.13 Mbytes
Step Temp f_TempAve Press f_PressAve PotEng KinEng TotEng 
       0    288.08058            0    2053.1155            0   -18755.377    1889.4559   -16865.921 
   10000    306.10598    298.22076   -331.13648     115.6624   -18687.218    2007.6805   -16679.537 
   20000    291.65006    297.31992    116.87229   -97.004284   -18726.527    1912.8673   -16813.659 
   30000    292.09143    297.52783   -636.54536   -42.001411   -18758.802    1915.7622   -16843.039 
   40000    297.25503    297.35272   -337.31289    24.545872   -18720.921     1949.629   -16771.292 
   50000    298.47983    297.04415   -366.28003    43.569167   -18652.681    1957.6623   -16695.019 
   60000    296.63202    297.67745   -107.42344    20.220574   -18704.782    1945.5429   -16759.239 
   70000    300.65646    297.87877    1.3513906   -9.5182606   -18670.961    1971.9383   -16699.023 
   80000    294.94931    297.27893    483.67252    114.75004   -18742.707    1934.5064     -16808.2 
   90000    286.39724    297.32929   -375.21288   -67.824091   -18789.538    1878.4153   -16911.123 
  100000    296.50486    297.62168    215.21465    189.91569   -18672.628    1944.7089   -16727.919 
  110000    299.07174    297.62725    239.18724    156.06658   -18721.359    1961.5445   -16759.815 
  120000     292.2686    297.85127     517.3456   -64.181154   -18673.644    1916.9242   -16756.719 
  130000    304.27329    298.13329   -432.23179   -34.067495   -18778.281    1995.6603    -16782.62 
  140000    302.20963    297.55418    149.68399    60.829498   -18779.012    1982.1252   -16796.887 
  150000     293.6024    297.42098    706.62664    137.51649   -18703.038    1925.6723   -16777.365 
  160000    291.55123    298.36302   -355.88204    98.623498   -18732.123    1912.2191   -16819.904 
  170000    302.64916    297.47275    227.02983    74.178349   -18668.685     1985.008   -16683.677 
  180000     300.8094    297.34202   -688.30229   -162.40076   -18701.979    1972.9414   -16729.038 
  190000    303.68437    297.59804   -245.80851   -61.244275   -18659.092    1991.7977   -16667.295 
  200000    294.29509     297.6091     300.9903    84.893949   -18676.275    1930.2155    -16746.06 
  210000    292.50644    297.96147    227.76062    178.31481   -18654.568    1918.4842   -16736.084 
  220000    300.47287    297.98746   -84.748457    43.715244    -18718.39    1970.7342   -16747.656 
  230000    296.95472    296.78241   -246.69079     -57.1117   -18707.094    1947.6594   -16759.434 
  240000    297.56579    298.13401   -56.782557    16.224113   -18768.627    1951.6673    -16816.96 
  250000    301.71401    298.16328    182.72964   -95.741489   -18626.971    1978.8745   -16648.096 
  260000     300.8544    297.68345   -182.87205    41.628353    -18706.15    1973.2365   -16732.914 
  270000    304.95561    297.55246   -323.54743   -43.307072    -18726.79    2000.1355   -16726.654 
  280000    307.31923    297.34493   -730.50992    102.41961   -18744.316    2015.6379   -16728.678 
  290000    290.49019    297.39924   -288.15298    58.919597   -18645.442      1905.26   -16740.182 
  300000    311.02492    297.02072   -304.61995    131.88487   -18667.056    2039.9427   -16627.113 
  310000    294.74011    297.75941    157.04133    251.44798   -18753.337    1933.1343   -16820.203 
  320000    296.70334    297.44643    799.63736    69.294082   -18726.441    1946.0107   -16780.431 
  330000    299.26923    298.02526    447.63641    222.69175   -18730.478    1962.8397   -16767.638 
  340000    301.39295    297.59687   -248.26495    130.26558   -18638.697    1976.7688   -16661.928 
  350000     296.6821    297.32515    239.84408    43.811537   -18743.615    1945.8713   -16797.743 
  360000    295.70402    297.76556    831.80897    63.752778   -18635.134    1939.4564   -16695.678 
  370000    296.76853    297.89184   -15.246726    172.66767   -18677.062    1946.4382   -16730.623 
  380000    293.28239    297.78629    595.70253    31.129837   -18641.699    1923.5734   -16718.125 
  390000    292.68597    297.52652    147.06322      99.4233   -18807.855    1919.6617   -16888.193 
  400000    303.34004    297.39962    61.211742    86.450625   -18818.308    1989.5393   -16828.769 
  410000    295.59356    297.64003     473.6754     79.54006   -18700.711    1938.7318   -16761.979 
  420000    300.07937    297.52202    733.15691    169.72237   -18739.834    1968.1533   -16771.681 
  430000    300.92199     297.6158   -179.60754    40.842066   -18662.089    1973.6799   -16688.409 
  440000    301.94866    297.16469    50.836619   -30.137305   -18727.012    1980.4135   -16746.599 
  450000    292.68734    297.31127   -428.18684   -114.50625   -18612.389    1919.6706   -16692.719 
  460000    296.75623      297.274   -275.28635   -10.140701    -18676.59    1946.3575   -16730.232 
  470000    290.97167    297.87475   -232.60008    134.84594   -18683.085    1908.4179   -16774.667 
  480000    296.30914    297.64594     349.9002    161.95633   -18676.719    1943.4252   -16733.293 
  490000    294.79209    296.94446   -346.88761    172.48164   -18732.969    1933.4752   -16799.493 
  500000    294.15826    297.28944   -16.634889    194.24604   -18789.556     1929.318   -16860.238 
  510000    295.20214    297.60832    -487.9808    107.88818   -18780.934    1936.1646    -16844.77 
  520000    294.60417    297.00271     780.9957    6.7824353   -18696.297    1932.2427   -16764.054 
  530000    299.27299    297.66535   -204.32694    -1.508524    -18770.52    1962.8644   -16807.656 
  540000    292.01337    297.74509    1141.8976    229.01396   -18653.436    1915.2502   -16738.186 
  550000    306.53946    298.22062   -89.871336    178.98897   -18690.755    2010.5236   -16680.231 
  560000    292.38958    297.07391    434.72061    91.987323   -18669.901    1917.7177   -16752.184 
  570000    298.27121    297.57828    292.88535    73.010789   -18723.027     1956.294   -16766.733 
  580000    295.18068    297.54393    613.04379    33.866895    -18704.51    1936.0239   -16768.486 
  590000    300.24651    297.53718    596.89961    43.447824   -18750.553    1969.2495   -16781.303 
  600000    307.42586     297.0157    847.60321    108.53687   -18671.211    2016.3373   -16654.874 
  610000    304.59212    297.54124   -197.62331    186.36513   -18829.264    1997.7514   -16831.513 
  620000    292.73475    297.80649   -331.07914   -28.040067   -18693.224    1919.9816   -16773.243 
  630000    299.88086    297.39102    304.57293     34.71364   -18638.515    1966.8513   -16671.664 
  640000    300.43272    298.19508   -91.336588    80.613006   -18590.514    1970.4708   -16620.043 
  650000    295.13493     298.2133    173.48153    65.084428    -18742.84    1935.7238   -16807.117 
  660000    298.90591    297.55227    163.41383    25.415287   -18687.715    1960.4568   -16727.259 
  670000    297.96136    297.58802   -653.51543    54.627044   -18590.383    1954.2617   -16636.121 
  680000    294.71456    297.60965    227.14595    137.03213   -18714.151    1932.9667   -16781.184 
  690000    304.65306    297.91842   -252.24137   -2.9028559   -18673.194    1998.1511   -16675.043 
  700000    294.69481    297.05016   -336.62053    80.101448   -18760.425    1932.8372   -16827.588 
  710000    296.95389    297.21819   -120.12868    31.158491   -18714.919     1947.654   -16767.265 
  720000    295.40587    297.82543    620.63627    17.263103   -18706.179    1937.5009   -16768.678 
  730000    291.26265    297.04696    781.64227    156.02679   -18741.102    1910.3264   -16830.776 
  740000    292.75496    297.47181    99.204761    -75.51168   -18708.285    1920.1141   -16788.171 
  750000    299.00872    297.76096    527.86292   -96.985398   -18674.935    1961.1311   -16713.804 
  760000    310.31004    297.70797   -96.905521   -141.75611   -18684.671     2035.254   -16649.417 
  770000    306.70554    297.69476    61.861244   -101.23377   -18678.746    2011.6129   -16667.133 
  780000    300.30448    297.33203     195.8457    77.395385   -18714.083    1969.6297   -16744.453 
  790000    289.15232    296.83154   -796.01295    32.120065   -18899.202    1896.4852   -17002.717 
  800000    294.79726    297.68044   -377.18395   -180.05786   -18736.898    1933.5091   -16803.389 
  810000    301.93618    296.70519    4.8873231    27.319638    -18735.96    1980.3317   -16755.628 
  820000    296.57845     297.6888    813.57469    95.218186   -18663.461    1945.1915   -16718.269 
  830000    293.28986     297.7437     332.0709    238.69178   -18729.086    1923.6224   -16805.464 
  840000    307.28809    297.42518    340.27816    234.78353   -18774.451    2015.4337   -16759.018 
  850000    289.99707    297.63662    300.60308    55.218139    -18679.36    1902.0258   -16777.334 
  860000    289.45311    297.90905   -26.165243    62.146026   -18778.087     1898.458   -16879.629 
  870000     299.4261    297.80879   -585.43406    60.149041    -18719.55    1963.8686   -16755.681 
  880000    306.98142    297.50167     1374.903    47.109396    -18706.03    2013.4223   -16692.608 
  890000    290.14097    297.22819   -414.94444    50.685276   -18660.435    1902.9696   -16757.466 
  900000    294.55375    297.92853   -558.92634   -29.933287   -18644.046     1931.912   -16712.134 
  910000    301.94759    298.20246   -337.80151   -179.18576    -18712.75    1980.4065   -16732.343 
  920000    300.81998    298.10083    697.43774    21.260304   -18622.225    1973.0108   -16649.214 
  930000    299.81023     297.0416   -287.42838    71.539646   -18784.733    1966.3881   -16818.345 
  940000    303.60103    297.62681   -242.88957    -63.92981   -18749.448    1991.2511   -16758.197 
  950000     284.4775     297.4993   -47.226733    70.368528    -18699.78    1865.8241   -16833.956 
  960000    293.99557    297.46929   -314.74945   -83.491357   -18737.878     1928.251   -16809.627 
  970000    292.87782    296.99251   -194.59943    73.981772   -18722.007      1920.92   -16801.087 
  980000    304.14231    297.58311    1345.0865    52.964824   -18721.424    1994.8012   -16726.623 
  990000    297.84216    296.58223    807.79628    16.214803   -18672.213    1953.4799   -16718.733 
 1000000    296.03366    297.34307   -43.086524   -83.540469   -18640.206    1941.6184   -16698.588 
 1010000     295.5901    297.24861    -368.0565    11.155305   -18649.491    1938.7092   -16710.782 
 1020000    299.15467    297.00103    609.55143    78.948541   -18696.354    1962.0884   -16734.266 
 1030000    293.70762    297.35693   -275.31081    38.889576   -18733.075    1926.3624   -16806.712 
 1040000    308.29939    296.77448    608.29429   -72.429086   -18777.613    2022.0666   -16755.547 
 1050000    294.13589    297.17389   -179.71523    170.17636    -18804.52    1929.1713   -16875.349 
 1060000    303.73882      297.609    410.65913    161.61155   -18685.092    1992.1548   -16692.937 
 1070000    291.93882    297.45502    606.90405    131.28386   -18754.988    1914.7612   -16840.227 
 1080000    297.10627    297.72257    3.9630299   -32.713162   -18614.082    1948.6534   -16665.429 
 1090000    298.49044     298.2562    324.82246    51.163395    -18698.03    1957.7318   -16740.298 
 1100000    298.99376      298.091   -977.72464    68.945065   -18842.399     1961.033   -16881.366 
 1110000    302.96067    297.62954     411.4635   -42.474678   -18742.206    1987.0511   -16755.155 
 1120000    288.85719    297.05436    180.32764   -81.918644   -18744.051    1894.5495   -16849.502 
 1130000      291.103    298.03942    129.79524    224.00552   -18684.524    1909.2793   -16775.245 
 1140000     296.2863    297.63143    515.58915    73.870339   -18749.451    1943.2754   -16806.176 
 1150000    302.15858    297.64269   0.80907089    150.70776   -18706.717    1981.7904   -16724.926 
 1160000    301.85108    297.24677   -611.76525   -292.14481   -18728.119    1979.7735   -16748.345 
 1170000    301.00321    297.87031    174.70331   -6.9250125   -18639.316    1974.2125   -16665.104 
 1180000    296.14242    297.82614   -203.12055   -39.182541   -18731.981    1942.3317    -16789.65 
 1190000    303.23761    297.25416   -194.33994    54.073877   -18708.056    1988.8674   -16719.188 
 1200000     303.5884     297.5212   -38.029485   -51.565599   -18645.412    1991.1682   -16654.244 
 1210000    298.16818    297.60196    616.72297    36.941857   -18657.353    1955.6182   -16701.735 
 1220000    306.44553    297.51571    635.99049     125.6254   -18740.059    2009.9075   -16730.151 
 1230000    300.56075    298.05832   -980.28246    72.645916   -18702.582    1971.3105   -16731.271 
 1240000    299.50691    297.11698    502.57131   -83.225821   -18729.685    1964.3986   -16765.287 
 1250000    310.26707    297.96271    297.28609    114.39573   -18699.193    2034.9721   -16664.221 
 1260000    307.03032     297.5261     413.4491    241.39634    -18707.23     2013.743   -16693.487 
 1270000    291.38282    297.74086    253.11669    116.57935   -18715.338    1911.1146   -16804.224 
 1280000    293.07893    297.52304    671.60118    165.95733   -18631.419     1922.239    -16709.18 
 1290000    304.17177    298.07219    385.51687    -43.36159   -18751.225    1994.9944    -16756.23 
 1300000    297.18534    298.05565   -946.84413    121.37566   -18658.483     1949.172   -16709.311 
 1310000    298.37439    296.59515    143.59415    36.482289    -18720.46    1956.9707   -16763.489 
 1320000    304.98583    297.60364     949.9266    -128.2243   -18640.323    2000.3337   -16639.989 
 1330000    293.29458    297.22512   -684.46768   -44.912703   -18791.679    1923.6533   -16868.025 
 1340000    295.56385    296.99951    149.64198   -73.695003   -18750.024     1938.537   -16811.487 
 1350000    302.53645    297.39469   -722.54392   -7.4515549   -18740.824    1984.2687   -16756.555 
 1360000    300.74748    297.62994    272.58251   -55.941575   -18765.794    1972.5353   -16793.258 
 1370000    301.40004    297.19142   -5.1307452    72.408972   -18732.393    1976.8153   -16755.578 
 1380000    298.90818    298.44943   -419.90415    188.62988   -18643.069    1960.4717   -16682.597 
 1390000    297.57457    297.18712    404.40883   -178.27155   -18637.942    1951.7248   -16686.217 
 1400000    297.70774    297.21179    489.51624   -71.884927   -18734.858    1952.5983   -16782.259 
 1410000    302.67539    297.65174    -543.7283    54.417541   -18705.077      1985.18   -16719.897 
 1420000    296.26016    297.84014   -158.13561     69.73531   -18829.959     1943.104   -16886.855 
 1430000    296.02238    297.55447    105.99999   -71.722594   -18655.344    1941.5444   -16713.799 
 1440000    300.18281    296.97639   -104.39415    82.542781   -18718.249    1968.8317   -16749.418 
 1450000    292.37608    297.17992    376.00686    190.89418   -18692.624    1917.6291   -16774.995 
 1460000    302.77309    297.56462    637.31918    59.255259   -18746.167    1985.8208   -16760.346 
 1470000    295.85323    297.44694    569.96225   -59.435775    -18719.46     1940.435   -16779.025 
 1480000    285.55312    298.01946    53.963784    86.835011   -18701.001    1872.8789   -16828.122 
 1490000    302.90653    297.91233    582.27153    70.856157   -18796.865     1986.696   -16810.169 
 1500000    306.56969    297.57123   -432.94976    162.33897   -18693.569    2010.7219   -16682.847 
 1510000    308.08963    297.40812     198.5966    109.77301   -18734.949    2020.6908   -16714.259 
 1520000    302.62627    297.96194    102.29227   -8.4622347   -18677.765    1984.8578   -16692.907 
 1530000    301.03956    298.08077   -457.68457    -51.23977   -18633.066     1974.451   -16658.615 
 1540000    297.22101    297.78412   -561.15111    167.32191   -18717.695    1949.4059   -16768.289 
 1550000    290.16347    297.14228    272.34093    68.636572   -18754.645    1903.1171   -16851.528 
 1560000    289.44541    297.68561    487.74997   -2.1015934   -18650.984    1898.4076   -16752.576 
 1570000    303.53417    298.33399    624.72829    201.94474   -18763.357    1990.8125   -16772.545 
 1580000    294.89031    297.97911   -873.66007     18.47535    -18732.73    1934.1194    -16798.61 
 1590000    292.13867    297.66318   -165.10125    42.245051   -18660.737     1916.072   -16744.665 
 1600000    298.04641    297.17575   -15.289521    26.701476   -18625.014    1954.8196   -16670.194 
 1610000    305.20123    298.02776    289.44337   -75.826973   -18711.574    2001.7464   -16709.828 
 1620000    295.06012     297.2871   -878.28952    19.844401   -18727.638    1935.2332   -16792.405 
 1630000      297.947    297.94686   -988.10593   -20.732738   -18725.748    1954.1675   -16771.581 
 1640000    291.28543    297.55733   -20.162091    126.07738   -18761.063    1910.4758   -16850.587 
 1650000    298.98226    297.10142    443.41456    39.027114   -18737.475    1960.9576   -16776.517 
 1660000    288.36039    296.84288    220.70525    157.50335   -18599.407    1891.2911   -16708.116 
 1670000    295.37802    297.55868   -270.96897    -138.3259   -18735.095    1937.3182   -16797.777 
 1680000    294.70623    297.64265    -448.6864   -186.30822   -18629.169    1932.9121   -16696.257 
 1690000    304.44558    298.11726    714.81729    31.629263   -18676.352    1996.7903   -16679.562 
 1700000    293.62824    297.39873    441.80546    110.97962   -18723.208    1925.8417   -16797.367 
 1710000    296.93532    297.52702    166.10704    109.39796   -18784.194    1947.5321   -16836.662 
 1720000    303.34373    297.27481    227.61774    20.872971   -18702.883    1989.5635    -16713.32 
 1730000    296.69926    297.90758    692.03725    17.582912   -18693.723    1945.9839   -16747.739 
 1740000     293.5416    297.71823   -155.21454   -45.021939   -18709.625    1925.2735   -16784.351 
 1750000    303.79933    296.95581    213.80269    88.334938   -18670.679    1992.5516   -16678.127 
 1760000    299.71306    297.18369   -408.96688   -79.190605   -18745.021    1965.7508   -16779.271 
 1770000    302.95482     297.9397   -280.33702   -56.741377   -18709.661    1987.0127   -16722.648 
 1780000    298.65218    297.64163    603.67457   -35.402279   -18707.525    1958.7926   -16748.732 
 1790000    288.87479    298.00805   -241.86575   -89.024644   -18718.705     1894.665    -16824.04 
 1800000     289.9186    297.29882    580.42315    64.626426   -18677.343    1901.5111   -16775.832 
 1810000    285.44558    297.91073   -224.44622     149.8835   -18690.227    1872.1735   -16818.053 
 1820000    296.09213    297.82626   -830.65092    178.76867   -18797.534    1942.0019   -16855.532 
 1830000    294.28117    297.00962    502.67628   -24.019565   -18685.575    1930.1242   -16755.451 
 1840000    298.90347    297.27164    -94.83134    120.84028   -18766.097    1960.4408   -16805.656 
 1850000    301.77858    297.29496   -87.593232    206.26853   -18755.426     1979.298   -16776.128 
 1860000    302.77068    297.50843   -514.79344   -54.126186   -18685.506     1985.805   -16699.701 
 1870000    298.29201    297.56049    249.22263   -149.45167   -18706.197    1956.4304   -16749.767 
 1880000    293.15049    297.20183   -852.10227   -38.261351    -18721.11    1922.7083   -16798.402 
 1890000    288.48151    296.93409    637.85372   -16.706894   -18670.153    1892.0855   -16778.067 
 1900000    295.33552    296.93789    351.31311    40.558297   -18721.935    1937.0394   -16784.895 
 1910000    300.80343    297.35316   -114.00631    103.41305   -18765.548    1972.9022   -16792.646 
 1920000    292.23265    297.52716    872.79526    179.38052   -18676.699    1916.6884   -16760.011 
 1930000    294.80457    297.81226    1024.5452    145.13005    -18718.87    1933.5571   -16785.313 
 1940000    300.68426    298.29672   -85.016228    135.96921   -18658.909    1972.1206   -16686.788 
 1950000    292.11402    297.99789    938.67315    21.710029   -18679.718    1915.9103   -16763.807 
 1960000    303.12319    297.46118   -194.12836   -3.3585425   -18758.866     1988.117   -16770.749 
 1970000    310.13697    297.82102     936.4113    100.66158   -18688.548    2034.1188   -16654.429 
 1980000    300.64927    296.86126    652.20266    32.131171   -18706.625    1971.8912   -16734.734 
 1990000     283.9886    298.04679   -798.54881    24.040759    -18665.81    1862.6175   -16803.192 
 2000000    289.69423    297.37574   -317.67325    44.450259   -18687.475    1900.0395   -16787.435 
 2010000    300.70154    297.91473   -412.68379   -10.287818   -18766.947     1972.234   -16794.713 
 2020000    292.80884     297.6729    98.970226    -20.92018    -18648.31    1920.4675   -16727.843 
 2030000    309.07343    297.68152    123.39199    6.9122216   -18685.138    2027.1433   -16657.994 
 2040000    303.60982    297.78603   -676.86838    36.196536   -18685.817    1991.3087   -16694.509 
 2050000    284.49415    297.46973   -249.75889    95.063843   -18708.637    1865.9333   -16842.704 
 2060000    291.77525     297.7304   0.28039187   -7.6678869   -18772.245    1913.6884   -16858.556 
 2070000    292.59181    297.51833   -51.743124   -95.146149   -18656.089     1919.044   -16737.045 
 2080000    302.08028    297.85019   -25.808852    51.221389    -18670.69    1981.2768   -16689.413 
 2090000    291.00209    296.76968   -757.96413    131.59137    -18730.01    1908.6175   -16821.393 
 2100000    293.09494    296.85591    584.46187    211.84951     -18800.3    1922.3439   -16877.956 
 2110000    305.07421      297.485   -73.511937    237.14313   -18677.145    2000.9133   -16676.232 
 2120000    294.37882    297.06986   -189.98341     -124.357   -18815.935    1930.7647    -16885.17 
 2130000    291.36179    297.76344   -355.80496    130.20602   -18738.406    1910.9766    -16827.43 
 2140000    291.89846    297.25234    609.99537    96.169137   -18690.368    1914.4965   -16775.871 
 2150000    300.02245    298.17805    134.59468    154.22437   -18676.378      1967.78   -16708.598 
 2160000    302.14796    297.52725    652.99717    53.012114   -18655.577    1981.7207   -16673.856 
 2170000    300.78753    297.15365    95.825392   -24.533142    -18700.27     1972.798   -16727.472 
 2180000    304.80162    297.55656   -261.67176     32.71549   -18790.699    1999.1255   -16791.574 
 2190000    292.77431    297.42104   -611.61774    63.026254   -18801.461     1920.241    -16881.22 
 2200000    303.94028    297.82271   -137.53194   -135.30674   -18719.557    1993.4761   -16726.081 
 2210000    298.86002    297.73684   -627.29691   -131.83189   -18733.436    1960.1558    -16773.28 
 2220000    295.52425    297.56976    624.11798   -5.0946446   -18772.285    1938.2773   -16834.007 
 2230000    304.14765    297.35246   -1028.8651    1.0152574   -18728.763    1994.8362   -16733.927 
 2240000    301.26069      297.971    319.35343   -53.241819   -18799.824    1975.9013   -16823.922 
 2250000    308.21713    297.59117    -54.95279    120.17234   -18724.383     2021.527   -16702.856 
 2260000    297.01173    297.77958    63.821674   -60.909624    -18709.23    1948.0333   -16761.196 
 2270000    296.52871    297.38852   -23.027343   -77.281056   -18746.194    1944.8653   -16801.329 
 2280000     297.7945    297.09837     869.5626    84.627795   -18741.624    1953.1673   -16788.456 
 2290000    292.72048    297.42704    197.15358     -52.1585   -18745.579     1919.888   -16825.691 
 2300000    307.70167    297.23085   -443.33674    129.78095   -18767.394    2018.1463   -16749.248 
 2310000    302.06019    298.54703    1344.1655    121.42295   -18694.035     1981.145    -16712.89 
 2320000    301.78542    297.68686    1052.9444    130.58789   -18659.674    1979.3429   -16680.331 
 2330000    295.81373    297.91828    382.54886   -132.90208   -18605.717    1940.1759   -16665.541 
 2340000    303.61262    297.36391    437.18672    32.677675   -18768.519    1991.3271   -16777.192 
 2350000    295.71347    296.70831    386.16716    272.80873   -18679.476    1939.5183   -16739.957 
 2360000    293.93039    297.26154    2.6911243   -2.6107901   -18808.416    1927.8235   -16880.592 
 2370000    296.62223    297.36538   -763.96477   -146.78589   -18682.088    1945.4787   -16736.609 
 2380000    293.68306     297.7385     197.2465    283.73015   -18593.941    1926.2013   -16667.739 
 2390000    296.84987    297.67691   -1539.4212    -77.70097   -18620.873    1946.9717   -16673.902 
 2400000    295.11612    298.04308    708.75218    145.39997   -18731.523    1935.6005   -16795.923 
 2410000    295.52237    298.12899    184.63806    131.15743   -18760.318    1938.2649   -16822.053 
 2420000    293.30095    296.88226    224.64782     10.55362   -18763.851    1923.6952   -16840.156 
 2430000    299.68321    297.80303    652.54704   -85.133258   -18729.011     1965.555   -16763.456 
 2440000     290.9323     297.3458    830.67984     85.95775   -18740.747    1908.1597   -16832.588 
 2450000    296.98657    297.32781    335.44745    9.8318778   -18720.726    1947.8683   -16772.858 
 2460000    298.97079     297.4816   -545.71881    9.7270233   -18779.591    1960.8824   -16818.708 
 2470000    292.19871    297.28936    75.500353   -54.579174   -18671.251    1916.4658   -16754.786 
 2480000    303.59311    297.15758    248.47939    100.66184   -18791.509    1991.1991    -16800.31 
 2490000     301.6139    297.43449    108.82422    66.210545   -18759.066    1978.2179   -16780.848 
 2500000    300.53757    297.32496    570.40413    68.677013   -18735.119    1971.1585   -16763.961 
 2510000    302.60019    297.69414    76.711043   -58.626761   -18790.687    1984.6868   -16806.001 
 2520000    294.37591    297.11243   -286.10512    55.714597   -18719.564    1930.7456   -16788.818 
 2530000    298.45184    297.89802    432.36527   -39.645484   -18724.511    1957.4787   -16767.032 
 2540000    299.36487     297.5628    -71.65071   -84.959182   -18571.964     1963.467   -16608.497 
 2550000      296.022    297.69938    259.29602   -18.567628   -18785.458    1941.5419   -16843.916 
 2560000    296.16326    297.18294   -651.22469   -222.64705   -18806.798    1942.4684    -16864.33 
 2570000    299.70843    297.85288   0.47024742   -36.398658   -18700.265    1965.7204   -16734.544 
 2580000    290.22135    297.53045    246.92627   -35.062725   -18736.243    1903.4967   -16832.746 
 2590000      295.692     297.5141   -39.342274   -46.930815   -18755.502    1939.3775   -16816.125 
 2600000    286.68678    298.05335    557.62405   -65.381532   -18718.779    1880.3143   -16838.465 
 2610000     300.0663    297.78241   -523.35617    110.72919   -18640.442    1968.0676   -16672.374 
 2620000     300.7194    298.30114   -130.28133    -28.18079   -18603.955    1972.3511   -16631.604 
 2630000    306.13415    297.62495    596.82652    36.486087   -18674.802    2007.8652   -16666.936 
 2640000    295.06061    297.55331   -23.580043   -43.573881   -18590.496    1935.2363    -16655.26 
 2650000    298.82278    297.46643   -672.31754    4.0474937   -18724.024    1959.9116   -16764.113 
 2660000    300.10617    298.23608    -171.8975   -4.7386127   -18743.875    1968.3291   -16775.546 
 2670000    302.74711    297.21517   -408.37615    7.6606835   -18716.738    1985.6504   -16731.088 
 2680000    294.71557    297.66792    321.05129   -108.65133   -18683.443    1932.9734    -16750.47 
 2690000    292.52425    297.64773    264.06094   -31.353055   -18636.287    1918.6009   -16717.686 
 2700000    300.80377    297.72093    210.35665    188.63506   -18735.519    1972.9045   -16762.614 
 2710000    295.24977    297.46026     819.0128    213.93167   -18742.063     1936.477   -16805.586 
 2720000    300.74364    297.61264    75.664582    42.484068   -18737.449    1972.5101   -16764.939 
 2730000    298.23416    298.00412    635.77774    212.22377   -18751.225    1956.0509   -16795.174 
 2740000    289.97119    297.34313    495.67879    76.034905   -18672.797     1901.856   -16770.941 
 2750000    302.65115     297.9148   -220.73509   -23.071593   -18691.942     1985.021   -16706.921 
 2760000    296.53159    297.56817   -456.54518    157.90858   -18727.987    1944.8842   -16783.103 
 2770000    301.89719    297.51715    357.60167    90.987946   -18704.554     1980.076   -16724.478 
 2780000    289.52877    297.88136     75.68991    140.93585   -18663.646    1898.9543   -16764.691 
 2790000    305.76544    297.47577    39.536768    135.92092   -18756.836    2005.4469   -16751.389 
 2800000    303.62039     297.4949   -46.098878   -47.851829    -18740.18    1991.3781   -16748.802 
 2810000    287.73289    297.43671   -231.18071    32.546988   -18731.552    1887.1755   -16844.376 
 2820000    308.23082    297.38904    178.81611    52.042239   -18730.885    2021.6168   -16709.268 
 2830000    306.90876    297.49919    703.29564   -112.59039   -18696.682    2012.9457   -16683.736 
 2840000    288.24712    297.96636    -171.7666   -38.132162   -18702.707    1890.5482   -16812.158 
 2850000    296.25916    296.88791     -333.948    52.668588   -18722.434    1943.0974   -16779.337 
 2860000    293.72699    297.62782    -640.4356     25.31336   -18791.469    1926.4895   -16864.979 
 2870000    301.12301    297.22901    1326.1356     121.1004   -18772.778    1974.9983   -16797.779 
 2880000    290.51193    297.24078    558.22358    203.29205   -18699.128    1905.4026   -16793.725 
 2890000    297.25783    297.28481    578.52124    242.78948    -18680.33    1949.6474   -16730.683 
 2900000    301.67174    297.29595    917.92853    126.40932    -18733.04    1978.5973   -16754.443 
 2910000    297.17706    297.77744   -487.74179    211.31572   -18742.444    1949.1177   -16793.326 
 2920000    298.21465     298.0937   -773.09495    -46.74295    -18703.39     1955.923   -16747.467 
 2930000    310.27503     297.1289    39.982702   -154.30106   -18669.401    2035.0243   -16634.377 
 2940000    290.65503    297.55965    761.05728    43.806434   -18652.999    1906.3411   -16746.658 
 2950000     291.7985     297.3735    520.40809   -141.43239   -18704.877    1913.8409   -16791.036 
 2960000    296.80399    297.26922    693.54308     11.37819   -18754.092    1946.6708   -16807.421 
 2970000    301.52009    297.19554   -20.112438    94.075427   -18701.619    1977.6026   -16724.017 
 2980000    299.98571    296.66631    482.88951    56.653195   -18702.291     1967.539   -16734.752 
 2990000      298.374    297.25983   -646.69436    53.762499   -18715.289    1956.9681    -16758.32 
 3000000    296.61202    296.94225     334.3268    47.923846   -18687.983    1945.4117   -16742.571 
 3010000    300.35362    297.57247   -27.282182   -145.97668   -18658.456    1969.9521   -16688.504 
 3020000    301.48011    297.89216    466.24636    -117.3159   -18637.082    1977.3404   -16659.741 
 3030000    300.71504    297.55752    2.3888941    197.26373   -18764.942    1972.3225    -16792.62 
 3040000     300.1063    297.48876   -451.88213    -18.65008    -18720.96    1968.3299    -16752.63 
 3050000    303.21012    297.40895    346.88615    1.5501579   -18667.375    1988.6872   -16678.688 
 3060000    300.95129    297.47578    380.87445    62.378535    -18796.56     1973.872   -16822.688 
 3070000     294.7597    297.32159   -348.66866    136.96008   -18712.177    1933.2628   -16778.915 
 3080000    302.19653    297.26224    197.28964    24.536489   -18738.555    1982.0392   -16756.516 
 3090000    302.11288    297.10389   -287.31976    -208.2292   -18660.804    1981.4906   -16679.314 
 3100000    296.98186    297.65301     472.8147     86.29137   -18790.979    1947.8374   -16843.141 
 3110000    295.39653    297.59812   -743.81583    67.065725   -18673.477    1937.4396   -16736.037 
 3120000    297.32767    297.48591   -382.54861    17.089106   -18661.145    1950.1055    -16711.04 
 3130000    288.16006    297.23414     1520.088   -30.028455   -18710.595    1889.9772   -16820.618 
 3140000    299.76189     297.3807   -800.47049    19.953953   -18707.489     1966.071   -16741.418 
 3150000    301.63436    297.96122    553.67473    98.092176   -18737.828    1978.3521   -16759.476 
 3160000    296.62946    297.07971   -129.49199   -76.877144   -18664.242    1945.5261   -16718.716 
 3170000    291.89348     297.6683    450.29173   -55.751269   -18688.135    1914.4639   -16773.671 
 3180000    300.08141     297.1262   -398.97627   0.12043649   -18710.871    1968.1666   -16742.705 
 3190000    298.24812    297.24156    698.71971     37.86059   -18652.759    1956.1425   -16696.616 
 3200000    294.47248    298.02352    663.17564    185.44874   -18714.795    1931.3789   -16783.416 
 3210000    304.60927    297.29095    -208.7116    126.01657   -18762.699    1997.8639   -16764.835 
 3220000    293.95351    296.60367   -603.59336    85.227022   -18715.158    1927.9752   -16787.183 
 3230000    291.15117    298.16907   -396.88277    124.71922   -18782.357    1909.5952   -16872.762 
 3240000    291.31255    297.88517    178.47161    63.994655   -18639.689    1910.6537   -16729.035 
 3250000    299.88784    297.66713    106.67389    21.571228   -18654.502    1966.8971   -16687.605 
 3260000    300.20306    297.51598   -522.25923    72.939482   -18766.724    1968.9645    -16797.76 
 3270000    292.58971    297.88465    936.05216    127.51801   -18730.609    1919.0303   -16811.579 
 3280000    290.65831    297.83054   -198.42164    164.44266   -18717.482    1906.3627   -16811.119 
 3290000    295.09926    298.06001    735.15664    43.772896   -18667.166    1935.4899   -16731.676 
 3300000    305.21918    297.42141   -677.04211    124.53161   -18737.838    2001.8641   -16735.974 
 3310000    300.47994    297.96693     475.4291    302.96631   -18701.827    1970.7805   -16731.047 
 3320000     308.1294    298.21128    849.42684    80.019312   -18728.319    2020.9517   -16707.367 
 3330000    289.83635    297.73199   -270.04858    207.25291   -18666.614    1900.9716   -16765.642 
 3340000    300.99999    297.62873   -274.93065  -0.99971689    -18742.47    1974.1914   -16768.278 
 3350000    306.52679    297.95237   -354.99356    23.668767   -18692.905    2010.4405   -16682.464 
 3360000    297.38715    297.36605    117.54472   -45.771489   -18666.905    1950.4956   -16716.409 
 3370000    292.90484    297.70691    382.90659    161.17137    -18673.53    1921.0971   -16752.433 
 3380000    300.49668    297.76901    96.656358    222.87118   -18745.847    1970.8903   -16774.957 
 3390000      309.007    297.53724    -289.0583    198.31715    -18708.22    2026.7076   -16681.512 
 3400000    295.65534    297.98888    530.44861    198.27346    -18650.59     1939.137   -16711.453 
 3410000    298.63125    297.84965    302.24955     6.103226   -18734.108    1958.6554   -16775.452 
 3420000    306.43043    297.67937     381.0734   -142.79229   -18724.514    2009.8085   -16714.706 
 3430000    296.74817      298.148   -131.82967    84.093691    -18735.36    1946.3047   -16789.055 
 3440000    296.12503    296.95156   -485.00243     66.20703   -18733.983    1942.2177   -16791.765 
 3450000    298.81276    297.67205   -36.792344   -85.495942   -18711.995    1959.8459   -16752.149 
 3460000    293.10506    297.30489   -202.67429   -178.37584   -18748.626    1922.4103   -16826.216 
 3470000    297.92726    297.75417    920.20611    140.77926   -18663.977    1954.0381   -16709.939 
 3480000    298.27947    297.99006    377.32422       159.37   -18712.183    1956.3481   -16755.835 
 3490000    293.52961    297.56435   -572.48867    40.314043   -18708.586    1925.1949   -16783.391 
 3500000    283.07199    297.50202    635.22499   -72.097513   -18762.892    1856.6057   -16906.287 
 3510000    285.78146    297.72683    197.99586   -10.490072   -18754.743    1874.3765   -16880.366 
 3520000    298.30329    297.25943   -312.89603    92.499829   -18764.148    1956.5043   -16807.644 
 3530000     286.6035     297.6044   -508.77345    205.33125   -18648.403    1879.7681   -16768.635 
 3540000    290.76882    298.12589   -170.56028    263.50623   -18716.186    1907.0874   -16809.098 
 3550000    285.10648    297.44742    198.44024    226.54866   -18661.147    1869.9495   -16791.197 
 3560000    297.01375     297.3304   -110.53317    92.282951   -18641.488    1948.0466   -16693.441 
 3570000    292.36085    297.79914   -325.45474    13.970394   -18660.182    1917.5293   -16742.652 
 3580000    303.25383    297.68338   -181.47562   -64.313369   -18735.661    1988.9739   -16746.687 
 3590000    295.66896    297.66002    516.47986    228.21738   -18749.172    1939.2264   -16809.945 
 3600000     305.1996    297.62372    147.66904    181.92592   -18761.427    2001.7357   -16759.691 
 3610000    295.74808    297.73503    157.67751    81.018363   -18686.465    1939.7453   -16746.719 
 3620000    304.93545    298.27139    576.51973    33.351056   -18655.171    2000.0032   -16655.168 
 3630000    305.55712    297.57815    154.35091    163.85446   -18652.712    2004.0806   -16648.632 
 3640000    293.32772    297.07902   -64.925073    37.934037    -18771.93    1923.8708    -16848.06 
 3650000    300.05852    297.57648    261.03604    125.10787   -18664.216    1968.0166     -16696.2 
 3660000    291.54725    297.52773    593.22702   -173.59741   -18811.968     1912.193   -16899.775 
 3670000    292.61643    297.55833    565.10164    92.348464   -18703.603    1919.2055   -16784.398 
 3680000    294.77368     297.3159   -187.87531    234.30021   -18693.461    1933.3544   -16760.106 
 3690000    302.87998    297.98772   -466.07877    43.776504   -18699.328    1986.5219   -16712.806 
 3700000    298.35094    297.41958   -383.47138    64.553921    -18711.06    1956.8169   -16754.243 
 3710000    300.35186    297.23628   -154.35211    224.58772   -18712.663    1969.9405   -16742.723 
 3720000     289.4843    297.98921   -185.51833      157.993   -18694.695    1898.6626   -16796.033 
 3730000    293.11794    297.67404    1227.6136    85.690102   -18679.633    1922.4948   -16757.139 
 3740000     303.1636    298.40187   -798.36318    41.728455   -18708.932     1988.382    -16720.55 
 3750000    292.68027    297.73474    291.99958    80.501846   -18673.665    1919.6242   -16754.041 
 3760000    294.63956    297.42832    147.90141    -61.11656   -18754.373    1932.4748   -16821.898 
 3770000    304.57769    297.07925    718.66998     48.93369   -18706.402    1997.6568   -16708.745 
 3780000    291.20498    298.36537   -315.65447    103.09616   -18696.843    1909.9481   -16786.895 
 3790000    295.67853    297.45873    772.02374    7.5731195   -18662.592    1939.2892   -16723.303 
 3800000    313.75241    298.43066    399.79083    257.33676    -18596.06    2057.8317   -16538.228 
 3810000    297.83184    297.69692   -8.3616397   -42.614722   -18709.655    1953.4123   -16756.243 
 3820000     302.5029    298.31504    410.99153    182.61782   -18731.739    1984.0487    -16747.69 
 3830000    299.06325    297.59074    110.50215    42.328547   -18635.722    1961.4888   -16674.233 
 3840000    291.33605    297.93555   -242.68671   -20.433222   -18801.177    1910.8078   -16890.369 
 3850000    292.83176    297.48518    248.59663    26.999859   -18708.186    1920.6178   -16787.569 
 3860000    296.35409    296.82316   -490.55442   -141.89762   -18670.663      1943.72   -16726.943 
 3870000    296.79417    297.40584      337.629      14.6921   -18665.437    1946.6064    -16718.83 
 3880000    303.42608    297.99936   -327.19823    65.689668    -18693.48    1990.1036   -16703.377 
 3890000    302.08659    298.57528    942.40845      115.312   -18649.074    1981.3182   -16667.755 
 3900000    295.91357    297.15698   -143.61433    49.540357   -18728.238    1940.8307   -16787.407 
 3910000    292.63859    297.72629    671.90352   -69.433629   -18717.374    1919.3509   -16798.023 
 3920000    300.73947    297.32039    632.46722   -148.09638   -18685.821    1972.4827   -16713.338 
 3930000    300.66921    297.95957    102.74994    166.41946   -18681.328    1972.0219   -16709.306 
 3940000    292.65313    297.49294   -230.96083    40.127536   -18703.927    1919.4462   -16784.481 
 3950000      294.951    297.46636   -206.87502    166.41203   -18669.131    1934.5175   -16734.613 
 3960000    294.66564    297.77351    189.06556   -29.071197   -18785.224    1932.6458   -16852.579 
 3970000    295.76844    297.61873    472.76397   -74.769145   -18731.435    1939.8788   -16791.556 
 3980000    308.04509    297.45387    475.71719    45.808914   -18729.217    2020.3986   -16708.819 
 3990000    304.16218    297.16142    200.58868    77.188628   -18759.535    1994.9315   -16764.604 
 4000000    304.89925    297.77995    -639.4625    29.764254   -18791.186    1999.7658    -16791.42 
 4010000    303.07982    297.80257    606.53302   -69.930369   -18634.044    1987.8326   -16646.211 
 4020000    304.51626    297.29501   -692.74618    64.537944   -18674.085    1997.2538   -16676.831 
 4030000    298.09489    297.59818     626.6583   -45.320455   -18767.271    1955.1375   -16812.134 
 4040000    302.56934    297.44973     566.3492    -188.3577   -18600.824    1984.4845    -16616.34 
 4050000    296.20473    297.68193    210.29231    19.891866   -18637.125    1942.7404   -16694.384 
 4060000     295.5343    297.08543   -540.13319     34.16867   -18721.935    1938.3432   -16783.592 
 4070000    294.52496    297.86545   -174.25971    350.41647   -18605.144    1931.7232   -16673.421 
 4080000    290.71862     297.3019    -32.39496    32.546159   -18695.146    1906.7582   -16788.388 
 4090000    290.69737    297.12413    398.09009    153.67655   -18646.031    1906.6188   -16739.412 
 4100000    301.22186    297.57121   -155.01974    206.65011   -18715.651    1975.6466   -16740.004 
 4110000    293.94175    297.22444    689.17318   -7.6192682   -18677.215     1927.898   -16749.317 
 4120000    287.86469    298.01902   -973.78448   -91.518708   -18687.242      1888.04   -16799.202 
 4130000    303.04246    297.44111   -513.47677    13.903226   -18780.481    1987.5876   -16792.893 
 4140000    292.35986    297.41905   -361.46687   -22.637139   -18693.722    1917.5228   -16776.199 
 4150000    294.99318    297.84331   -445.92064   -46.747326   -18698.561    1934.7941   -16763.767 
 4160000    299.75749     297.2185   -243.90731   -189.25068   -18731.428    1966.0421   -16765.386 
 4170000    296.68479    297.37322    868.07824   -17.375072   -18826.726     1945.889   -16880.837 
 4180000    306.99723    298.15376    1066.1737    66.188289   -18735.241    2013.5259   -16721.715 
 4190000    294.76324    298.09637     380.3293    5.4848482   -18758.162     1933.286   -16824.876 
 4200000    296.58067    298.18743   -661.99935    131.78059   -18730.325    1945.2061   -16785.119 
 4210000    293.44872    297.64207    603.69807   -82.694969   -18757.397    1924.6643   -16832.732 
 4220000        301.1     297.9806    163.24457   -42.158649   -18795.105    1974.8474   -16820.257 
 4230000    288.63648    296.75993   -220.48294    53.900578   -18672.587    1893.1019   -16779.485 
 4240000    296.25604    297.65282    204.37325    161.39793    -18792.05    1943.0769   -16848.973 
 4250000     302.5292     297.0264   -1051.4435     65.26541   -18802.599    1984.2212   -16818.378 
 4260000    294.72918    298.09069   -381.13217    24.922354   -18709.133    1933.0626    -16776.07 
 4270000    296.89088    298.22365    -368.9537    24.386704   -18711.355    1947.2407   -16764.114 
 4280000    304.47391    297.06765    655.79257    90.600791   -18732.098    1996.9761   -16735.122 
 4290000    295.45235    296.85084   -348.74985   -84.548595   -18690.984    1937.8057   -16753.178 
 4300000     301.2592    297.90713   -569.64813   -65.215242   -18695.741    1975.8915   -16719.849 
 4310000    290.81233    297.20916   -638.40096   -169.51761   -18745.355    1907.3729   -16837.982 
 4320000    298.67897    297.74298    468.74121    14.910497    -18694.69    1958.9684   -16735.722 
 4330000    296.20128    298.39122   -475.85926    20.043938     -18684.4    1942.7178   -16741.682 
 4340000    298.65641    298.07499    473.04183    158.84482   -18680.639    1958.8204   -16721.818 
 4350000     304.3415    297.69946    804.33303    33.696257   -18704.902    1996.1076   -16708.794 
 4360000    303.20946    297.71541    497.63486   -8.2080943   -18673.951    1988.6829   -16685.269 
 4370000    292.09483    296.72893    48.275932   -23.709593   -18706.864    1915.7845    -16791.08 
 4380000    290.98488     298.4585    915.79689    -41.79746   -18683.354    1908.5046   -16774.849 
 4390000    297.43682    297.96756    675.55958    19.342111   -18696.833    1950.8214   -16746.012 
 4400000    296.73407    297.88141   -348.01575    23.393002   -18754.979    1946.2122   -16808.767 
 4410000    290.82844    297.20495    432.50949   -245.92482   -18828.202    1907.4785   -16920.723 
 4420000    301.67038    297.37589    207.23813   -22.258369   -18736.631    1978.5883   -16758.043 
 4430000    295.54662    296.94536    900.94642    151.03941   -18713.435     1938.424   -16775.011 
 4440000    302.09207    296.98446   -792.92871    66.133506   -18768.977    1981.3542   -16787.622 
 4450000    300.08618    297.16856    -596.1466    116.07179   -18800.612     1968.198   -16832.414 
 4460000    295.80992    297.35258   -308.18741   -106.55093   -18740.195     1940.151   -16800.044 
 4470000     302.2519     297.1789     106.2094   -123.90534   -18706.718    1982.4024   -16724.316 
 4480000    297.76391    297.43706    291.32099   -37.875154   -18741.864    1952.9667   -16788.897 
 4490000     296.8417    298.43479   -276.54211    72.236681   -18681.548    1946.9181    -16734.63 
 4500000     286.5806    297.50522    264.24425    7.4123821   -18744.046    1879.6179   -16864.429 
 4510000    290.72914    297.13894    462.08619   -68.934052   -18730.745    1906.8272   -16823.917 
 4520000    296.12344    298.00321   -290.48117    183.55558   -18777.503    1942.2072   -16835.296 
 4530000    300.13871    297.80973   -53.716177    10.249873   -18712.055    1968.5425   -16743.512 
 4540000    294.71594    297.64547    463.12111   -81.238909   -18750.151    1932.9757   -16817.176 
 4550000    298.52368    297.83678    346.58857    49.144489    -18621.31    1957.9499    -16663.36 
 4560000    298.55274    298.06742   -394.13576     2.592833   -18738.267    1958.1404   -16780.127 
 4570000    303.19819    298.26956    29.997572    313.02712   -18766.703    1988.6089   -16778.094 
 4580000    302.47229    297.38518   -372.65355    289.38563       -18754    1983.8479   -16770.152 
 4590000    297.56319    297.93735     41.01774    210.22317    -18677.23    1951.6503   -16725.579 
 4600000    299.01579    297.89346   -602.54758    44.011991    -18680.86    1961.1775   -16719.683 
 4610000    287.97642    297.45364    94.314732   -29.234545   -18756.713    1888.7728   -16867.941 
 4620000    293.77499     297.7255    640.35876    9.5946298   -18704.035    1926.8043   -16777.231 
 4630000    299.49584     297.4052   -299.14242   -14.682603   -18734.197    1964.3261   -16769.871 
 4640000    293.59763    297.55122    188.04131   -69.283057   -18702.421     1925.641    -16776.78 
 4650000    295.77434    297.31674   -136.38986    16.526862    -18741.92    1939.9175   -16802.002 
 4660000    298.13384    297.07705    1069.7816    50.040721   -18701.043     1955.393    -16745.65 
 4670000    291.01971    297.27067    437.57196    121.00433   -18726.497     1908.733   -16817.764 
 4680000     301.0904    298.20361     491.1237    102.44877    -18703.75    1974.7844   -16728.966 
 4690000    292.61727    297.83564    612.89963  -0.14773548   -18692.854     1919.211   -16773.643 
 4700000    305.48248    298.18223   -230.88892    99.330441   -18688.661    2003.5911    -16685.07 
 4710000    300.84124    297.54073    156.38709    20.042552    -18684.42    1973.1502   -16711.269 
 4720000     295.6919    297.93247   -395.02711    31.460093   -18694.902    1939.3769   -16755.525 
 4730000    297.53516    297.28957    246.88694   -173.72925    -18725.78    1951.4664   -16774.314 
 4740000    297.26719    297.21872    175.80159    68.640842   -18696.382    1949.7089   -16746.673 
 4750000    300.47978    297.73445   -898.35063    29.109997   -18624.868    1970.7795   -16654.089 
 4760000    299.81702    297.87924   -398.24477   -46.738241   -18744.045    1966.4326   -16777.612 
 4770000    290.51446    297.41094    576.62855   -23.759213   -18696.766    1905.4192   -16791.346 
 4780000    300.10633     297.0995    167.45205   -6.1734345   -18706.214    1968.3301   -16737.884 
 4790000    300.74229     298.2317    201.39825    93.954241   -18591.921    1972.5012    -16619.42 
 4800000    289.17365    297.89522   -28.067834   -85.940254   -18809.077    1896.6251   -16912.452 
 4810000    285.83039    297.11903   -362.80507    72.377867   -18698.507    1874.6974    -16823.81 
 4820000    307.27626    297.44581   -231.65165    157.62177   -18729.428    2015.3561   -16714.072 
 4830000     295.6291    297.18987    60.489338    91.357131     -18744.6     1938.965   -16805.635 
 4840000    292.91336    296.73575    490.19872   -19.806771   -18643.878    1921.1531   -16722.725 
 4850000    295.68528    297.39294    406.96498    5.2843671   -18682.275    1939.3335   -16742.941 
 4860000    303.28623    297.31629    261.32895    67.839601   -18736.555    1989.1863   -16747.369 
 4870000    313.82533    297.66903    447.12654    3.4235609   -18740.784    2058.3099   -16682.474 
 4880000    288.82488    297.58369   -25.393396    187.44517   -18777.725    1894.3376   -16883.387 
 4890000    301.37032    296.80928   -184.68353     64.22043   -18646.637    1976.6203   -16670.017 
 4900000    301.36281    297.63395   -55.709282    142.03947   -18679.588    1976.5711   -16703.017 
 4910000    303.03871    298.01289    921.78996   -69.614803   -18805.664     1987.563   -16818.101 
 4920000     302.6475    297.33952    493.51137    210.09863   -18785.887    1984.9971    -16800.89 
 4930000    299.87983    297.56614    592.98841    29.649078   -18657.547    1966.8445   -16690.702 
 4940000    289.49086    297.54091    78.676934    84.615592   -18696.431    1898.7056   -16797.725 
 4950000    301.08328    297.77832    723.29621    117.86228   -18592.851    1974.7377   -16618.113 
 4960000    289.88472    297.36861    188.33575    126.32268   -18563.788    1901.2889   -16662.499 
 4970000    293.84516    296.93413   -677.93261    105.70857   -18736.084    1927.2645    -16808.82 
 4980000    298.03019    297.01329   -187.60556   -225.71988   -18762.908    1954.7132   -16808.195 
 4990000    301.45965    297.02021    18.715633   -48.890746   -18751.708    1977.2062   -16774.502 
 5000000    301.13072    297.64179   -1380.5914   -16.665607   -18689.499    1975.0489    -16714.45 
 5010000    299.73116     298.0427    972.82893   -10.219532   -18678.207    1965.8694   -16712.338 
 5020000    301.41991    297.52019   -533.13777    14.416892   -18651.305    1976.9456    -16674.36 
 5030000    300.90176    297.68398   -353.19752   -69.397468   -18643.405    1973.5472   -16669.858 
 5040000    306.25855    297.75935    196.47333   -22.031817   -18737.656    2008.6812   -16728.975 
 5050000    295.50005    298.18289   -219.19387    126.51334   -18652.856    1938.1185   -16714.737 
 5060000    300.30887    297.36927    535.31161    22.324612   -18693.179    1969.6585    -16723.52 
 5070000    294.58639    297.66701   -568.88494    117.13593   -18628.694     1932.126   -16696.567 
 5080000    300.39396    297.38835    101.96581   -131.84249   -18689.985    1970.2166   -16719.769 
 5090000    296.45837    297.59594    312.39275    220.34011    -18696.64    1944.4039   -16752.236 
 5100000    297.79263    298.50529   -45.707859    151.35228   -18759.049    1953.1551   -16805.894 
 5110000    297.32409    297.55764    704.78692    222.36874    -18696.43     1950.082   -16746.348 
 5120000    302.46318      297.349    92.132017    245.45189   -18714.874    1983.7881   -16731.085 
 5130000     293.3109    297.34454    293.63875    57.311992   -18683.198    1923.7604   -16759.437 
 5140000    295.19213    297.99651    541.46109     83.11468   -18624.191    1936.0989   -16688.092 
 5150000    296.92049     297.6602   -87.518375    79.367275   -18656.575    1947.4349    -16709.14 
 5160000    304.77316    297.37421     233.4698   -150.00329    -18691.58    1998.9388   -16692.641 
 5170000    297.11261    297.19605    583.41171    143.94441   -18730.006     1948.695   -16781.311 
 5180000    295.74224    297.48315   -93.064773   -60.735368   -18732.933     1939.707   -16793.225 
 5190000    292.06192    297.43699    182.46425   -105.56725   -18668.516    1915.5686   -16752.947 
 5200000    294.75499     297.3154    203.20443     191.3376   -18794.911    1933.2319   -16861.679 
 5210000    286.32124    297.65726    144.91672    94.557285   -18621.549    1877.9168   -16743.632 
 5220000    298.73691    297.64573    913.98646     76.06627   -18725.897    1959.3484   -16766.549 
 5230000    293.42712    297.43407    487.02607     123.2725   -18661.515    1924.5226   -16736.993 
 5240000    291.60191    297.13641    149.09865   -29.555495   -18707.609    1912.5515   -16795.057 
 5250000    296.83266    297.43846   -285.88299    120.24483   -18763.978    1946.8588    -16817.12 
 5260000    297.37672    298.48966   -28.412035   -22.475022   -18754.392    1950.4272   -16803.965 
 5270000    293.87254    297.15261   -103.41281   -77.097668   -18660.468    1927.4441   -16733.024 
 5280000    293.34827    297.80555   -287.76864     154.8026   -18781.788    1924.0055   -16857.782 
 5290000    293.96083    297.32567    194.89945   -21.655236   -18715.436    1928.0231   -16787.413 
 5300000    301.15429    297.45571   -225.29483    153.96344   -18707.294    1975.2035    -16732.09 
 5310000    300.38429    297.70892   -38.570408    233.73856   -18702.892    1970.1532   -16732.739 
 5320000    301.90907    297.81298   -692.05656    18.085646   -18750.141    1980.1538   -16769.987 
 5330000    300.53001     297.1379   -93.019757   -17.281904   -18818.304    1971.1089   -16847.195 
 5340000    304.85398    297.32109   -368.42867    -77.15571   -18689.525    1999.4689   -16690.056 
 5350000    303.48569    297.27245    477.23344   -88.857053   -18639.051    1990.4946   -16648.556 
 5360000    306.21201    297.49469    527.79118   -38.491246   -18690.549    2008.3759   -16682.173 
 5370000    297.68474    297.62039    239.79546    10.557967   -18640.859    1952.4474   -16688.412 
 5380000     294.0199    297.61179   -29.058258    -34.32914   -18680.473    1928.4106   -16752.062 
 5390000    296.48612    296.89629   -619.36149   -64.372965    -18689.41     1944.586   -16744.824 
 5400000     295.8526    297.36719   -746.53181      151.694    -18639.64    1940.4309   -16699.209 
 5410000     296.6913    297.81944    79.047528   -147.77968   -18712.875    1945.9317   -16766.944 
 5420000    295.69562    297.85931   -15.790337    16.081478   -18662.852    1939.4012   -16723.451 
 5430000    297.17773    297.56416    105.11074    -57.54367   -18706.214    1949.1221   -16757.092 
 5440000    304.24817    298.34985   -296.32925   -37.051087    -18647.32    1995.4955   -16651.824 
 5450000    296.68671    297.25924   -185.77315   -173.59178   -18706.264    1945.9016   -16760.363 
 5460000    294.74095    297.32791    532.32237    120.89251   -18776.182    1933.1398   -16843.043 
 5470000    303.72024    298.07859    65.059075    55.177774   -18698.662     1992.033   -16706.629 
 5480000    293.46037     297.7257    866.51855    109.23838    -18719.48    1924.7408   -16794.739 
 5490000    298.71117    297.70767   -465.42227    87.021984   -18707.212    1959.1796   -16748.032 
 5500000    300.64475     297.1409   -333.05019   -65.078212   -18736.301    1971.8615    -16764.44 
 5510000    294.42785    297.37406    133.36777   -104.81653   -18674.868    1931.0863   -16743.781 
 5520000    290.73474    297.30725   -191.35347   -47.910539   -18770.397    1906.8639   -16863.534 
 5530000    295.78148    297.52603    650.06453    98.009336   -18747.417    1939.9644   -16807.452 
 5540000    292.00006    297.88774    267.20201   -57.009775   -18628.368    1915.1629   -16713.205 
 5550000    299.20002    297.39775   -100.51798    36.620138   -18639.134    1962.3858   -16676.748 
 5560000    300.87474    297.57714    54.422929    49.407847   -18732.127      1973.37   -16758.757 
 5570000     292.7903    297.96047    33.191068   -99.691617   -18747.514    1920.3459   -16827.169 
 5580000    290.27188     297.4361    389.27687   -96.990684   -18617.108    1903.8282    -16713.28 
 5590000    292.62566    297.89468     608.4617   -128.75286   -18614.127     1919.266   -16694.861 
 5600000    286.93591     297.9453    72.889845   -52.883066   -18679.203    1881.9483   -16797.255 
 5610000     297.4725    298.03534    1173.3337    179.27814    -18705.05    1951.0554   -16753.994 
 5620000    300.38083    297.34126   -375.32225    149.72645   -18722.122    1970.1305   -16751.992 
 5630000    296.54078    297.80592   -613.61163   -80.498057   -18682.884    1944.9445    -16737.94 
 5640000    300.90205    297.28906    121.67249    42.567067   -18765.873    1973.5491   -16792.324 
 5650000    295.29537    297.45023   -28.622207     38.84145   -18771.384    1936.7761   -16834.608 
 5660000     294.1032     296.9511    260.27508    7.6314505   -18790.526    1928.9569   -16861.569 
 5670000    297.41885    297.77332    610.24353    83.549897   -18749.114    1950.7035   -16798.411 
 5680000    301.31119    296.80402    326.64425    216.31051    -18758.26    1976.2325   -16782.028 
 5690000    292.15664    297.03873    542.32276   -7.0586481   -18646.883    1916.1899   -16730.693 
 5700000    295.30544    297.45901    238.50441    -62.11177   -18636.576    1936.8422   -16699.734 
 5710000    307.97957    297.77795    183.16014    231.05485   -18690.189    2019.9689    -16670.22 
 5720000    301.97671    297.68367    372.65902     46.85904   -18560.323    1980.5975   -16579.726 
 5730000    300.66675     298.0239    595.01207    85.324052     -18670.7    1972.0058   -16698.694 
 5740000    299.26816    297.87987    140.54981    191.71295   -18745.749    1962.8327   -16782.916 
 5750000    299.03467    297.77185      40.6703    297.45989   -18785.566    1961.3014   -16824.264 
 5760000     299.9505    297.45784    705.35754   -3.9380251   -18742.043    1967.3081   -16774.735 
 5770000    304.81634    298.01318    6.2689828    2.5662972   -18755.691     1999.222   -16756.469 
 5780000    293.57536    297.16905    134.55455    126.36822   -18603.844    1925.4949   -16678.349 
 5790000    304.24092    297.87875    71.751232    104.49454    -18740.14     1995.448   -16744.692 
 5800000    294.96639    297.37971    165.94687    92.138462   -18732.994    1934.6184   -16798.375 
 5810000    292.12799    297.42326   -329.97854    75.471938   -18669.137     1916.002   -16753.135 
 5820000    295.58829    297.30218   -1022.2783     1.805334   -18777.374    1938.6973   -16838.677 
 5830000    307.52878    297.60556     99.12164   -130.80834   -18670.346    2017.0123   -16653.334 
 5840000    299.50742    297.01937    -242.7947     20.58977   -18699.655     1964.402   -16735.253 
 5850000    302.34923    297.40361   -683.41239    5.1760232   -18615.914    1983.0408   -16632.873 
 5860000    301.01021     297.5192     157.1397   -54.512188   -18730.834    1974.2584   -16756.575 
 5870000    300.95622     297.6785    1101.3599   -38.532209   -18759.102    1973.9043   -16785.198 
 5880000     294.8688    297.44032   -445.50764   -26.801811   -18721.211    1933.9783   -16787.233 
 5890000    298.51935     297.8582    229.19811   -16.206005   -18629.581    1957.9215    -16671.66 
 5900000    293.13528    297.52339    111.61183    185.82799   -18752.842    1922.6086   -16830.233 
 5910000    287.71514    297.88725   -708.19652   -174.26242   -18637.871    1887.0591   -16750.812 
 5920000    300.35004    297.58867     866.5988     171.5339   -18731.006    1969.9285   -16761.077 
 5930000    296.06511    296.87998   -285.20394   -111.03955   -18735.434    1941.8246   -16793.609 
 5940000    305.04865     297.5948   -597.84231    17.325875    -18750.51    2000.7457   -16749.764 
 5950000    295.57277    297.86119   -191.74195     -76.0945   -18794.151    1938.5955   -16855.555 
 5960000    296.51183    297.60709    529.61814    174.38372   -18692.477    1944.7546   -16747.723 
 5970000    305.75565    297.86429    645.32978   -5.9653016   -18616.887    2005.3827   -16611.504 
 5980000     300.7774    297.85469    182.68707    48.645707   -18759.217    1972.7315   -16786.486 
 5990000    299.45824    298.46542   -114.69426   -58.520637   -18642.645    1964.0794   -16678.566 
 6000000    311.29074    298.01071    555.57064    85.731807   -18733.338    2041.6862   -16691.652 
 6010000    300.41103     297.4425    433.53829     42.37718   -18693.932    1970.3286   -16723.603 
 6020000    286.59287    298.08724   -207.12907    32.298105   -18631.249    1879.6983    -16751.55 
 6030000    302.78207    297.46979     144.8766    199.75323   -18805.394    1985.8797   -16819.514 
 6040000    303.07261    297.45941    101.64945   -64.084879   -18753.195    1987.7853    -16765.41 
 6050000    304.73233    297.60494   -209.56933   -37.226126    -18757.08     1998.671   -16758.409 
 6060000    293.95751    297.58205   -507.62923    105.45596   -18678.885    1928.0014   -16750.883 
 6070000    299.00966    297.51933   -318.28964    15.337441   -18628.969    1961.1373   -16667.832 
 6080000     295.5511    298.10281   -52.136516    63.260986   -18739.163    1938.4534    -16800.71 
 6090000    292.07042    297.90444   -261.69575    104.24932   -18645.665    1915.6244    -16730.04 
 6100000    301.81735    297.63696    108.55286   -18.747995   -18750.914    1979.5523   -16771.362 
 6110000    295.06517    296.78681   -439.98057    7.5208023   -18738.192    1935.2662   -16802.926 
 6120000    295.05512    297.27482   -647.24356     62.29579   -18713.592    1935.2003   -16778.391 
 6130000    294.04617    297.15967   -184.49783    201.54239     -18701.1    1928.5829   -16772.517 
 6140000    298.97442    297.91681   -99.840673   -45.150205   -18789.527    1960.9062   -16828.621 
 6150000      294.068    297.32609   -128.29387     -23.9841   -18684.894    1928.7261   -16756.168 
 6160000    301.16607     297.5685    363.41349    77.827863   -18686.883    1975.2807   -16711.602 
 6170000    295.80328    297.01951   -217.65379    102.50825   -18683.519    1940.1074   -16743.412 
 6180000    296.66483    297.01609   -483.71285    3.5188507   -18628.624    1945.7581   -16682.866 
 6190000    304.78744    297.59068    757.86459   -15.748865   -18733.516    1999.0325   -16734.484 
 6200000    290.20662    298.28296   -1013.1619     197.3042   -18702.919    1903.4001   -16799.519 
 6210000    296.66819    298.35047    267.40328   -12.118283   -18671.764    1945.7801   -16725.984 
 6220000    290.35263    297.75243   -177.65887    40.131721   -18781.862    1904.3578   -16877.505 
 6230000    305.90356    297.04618    389.00254    45.605669   -18761.901    2006.3528   -16755.548 
 6240000    302.14689    297.91523    -389.5919     -207.538   -18698.823    1981.7137   -16717.109 
 6250000    286.13905      297.253    696.90045    101.07781   -18660.505    1876.7218   -16783.784 
 6260000    296.62949    297.92401    5.6755617    6.7344299   -18658.566    1945.5263    -16713.04 
 6270000     294.5813    297.66229   -448.21429   -36.481225   -18729.468    1932.0927   -16797.375 
 6280000    297.87791    298.11119   -227.57818    23.393887   -18713.941    1953.7144   -16760.227 
 6290000    294.67231    297.05049      679.062    149.02394   -18736.411    1932.6896   -16803.722 
 6300000    302.79724    297.39505   -556.68956   -6.6035832   -18720.942    1985.9792   -16734.963 
 6310000    294.30989    297.44195   -981.83064    131.48346   -18764.874    1930.3126   -16834.562 
 6320000    297.80007    297.24015    116.64753    32.589502    -18645.62    1953.2038   -16692.416 
 6330000    294.66571     297.0856    274.43928    148.08368   -18609.744    1932.6463   -16677.098 
 6340000    293.20899    297.30747    323.70718    178.22721   -18646.808     1923.092   -16723.716 
 6350000    295.36411    297.67997    -548.3988     154.7337    -18722.42     1937.227   -16785.193 
 6360000    290.25906    298.06892   -205.49564   -125.02566   -18712.108     1903.744   -16808.364 
 6370000    306.73533    297.66064    813.94824   -160.71024   -18647.483    2011.8082   -16635.675 
 6380000     306.7893    297.44436    952.91505   -57.718098   -18647.901    2012.1622   -16635.738 
 6390000    297.79518    297.87581   -3.7611471    59.503739   -18787.685    1953.1718   -16834.513 
 6400000    297.03552     297.5058   -273.48055   -4.3711724   -18746.006    1948.1893   -16797.817 
 6410000    302.78032    296.70611   -149.56863    226.38464   -18771.062    1985.8682   -16785.194 
 6420000    292.54138     297.5769    163.21796    9.5432441    -18701.49    1918.7133   -16782.776 
 6430000    295.67368    297.29349    108.56925   -34.701914   -18672.394    1939.2574   -16733.136 
 6440000    303.57413     297.8202   -519.09375    19.333881   -18650.518    1991.0746   -16659.443 
 6450000    301.83631    297.55456    953.54978   -41.069518    -18718.53    1979.6766   -16738.853 
 6460000    288.09975    297.89859   -210.67261   -84.915138     -18702.1    1889.5816   -16812.518 
 6470000    314.06597    296.86681   -134.94257   -63.166644   -18760.016    2059.8882   -16700.128 
 6480000    296.61144    297.90423    52.587599   -133.82747   -18730.396    1945.4079   -16784.988 
 6490000    295.36332    297.48785    124.32915   -71.076435   -18697.133    1937.2217   -16759.912 
 6500000    302.99372     297.0247   -585.84047   -62.503962   -18741.166    1987.2679   -16753.898 
 6510000    290.32831    297.95363   -288.90119   -123.98327   -18706.923    1904.1983   -16802.724 
 6520000    294.06033    296.95535    388.19882    61.008438   -18689.199    1928.6757   -16760.523 
 6530000    294.18444    298.33232    1096.8319    44.212192   -18699.353    1929.4897   -16769.863 
 6540000    294.84536    297.47679   -733.58473   -26.548097   -18795.787    1933.8246   -16861.962 
 6550000    297.88859    297.09462    190.64785   -56.646508   -18742.897    1953.7844   -16789.113 
 6560000    294.63238    297.20164    297.08483    143.89184   -18716.571    1932.4277   -16784.144 
 6570000    295.30982     297.8594     482.2988   -139.67952    -18791.66    1936.8709    -16854.79 
 6580000    298.76175     297.5722   -343.27822    7.9913452   -18657.185    1959.5113   -16697.674 
 6590000    301.47078    297.20471   -350.87897      87.6511   -18682.199    1977.2792    -16704.92 
 6600000    304.63027    297.10166    -902.6572    253.23509   -18747.309    1998.0016   -16749.308 
 6610000    292.87589    298.26241   -359.48374    99.075823   -18634.224    1920.9073   -16713.316 
 6620000    296.13196    298.18691   -417.62509   -44.264877     -18725.1    1942.2631   -16782.837 
 6630000    293.52954    297.51033    57.580074    -82.05982   -18658.014    1925.1944    -16732.82 
 6640000    300.32634    297.61122   -262.85816    93.491235   -18649.336    1969.7731   -16679.563 
 6650000    303.92721    298.11219    129.25463    17.463107   -18624.829    1993.3904   -16631.439 
 6660000    296.28319    296.49219     686.2251   -109.00074   -18749.575     1943.255    -16806.32 
 6670000    295.81042    298.35642   -325.18029    101.19747   -18690.043    1940.1542   -16749.889 
 6680000    293.73957    297.72514    780.07299   -26.257323   -18671.121    1926.5719   -16744.549 
 6690000     303.7165    297.43151   -482.65979   -68.697042   -18752.922    1992.0084   -16760.913 
 6700000    301.04572     297.0606   -590.89079    30.667262   -18753.406    1974.4913   -16778.915 
 6710000    300.54797    298.10646    69.713033   -55.206968   -18690.235    1971.2267   -16719.008 
 6720000    305.32846    297.64943    747.91129    61.655198   -18776.685    2002.5809   -16774.104 
 6730000    297.75749    297.42203   -111.53416    260.08469   -18663.304    1952.9246    -16710.38 
 6740000    298.21016    297.43983    187.49541     62.04163   -18650.413    1955.8936   -16694.519 
 6750000    296.00305    298.09223   -34.814601   -73.207058   -18780.683    1941.4176   -16839.265 
 6760000    294.94686    297.51468   -119.12111    117.02677   -18695.178    1934.4903   -16760.687 
 6770000    299.87401    297.64945   -416.97373   -48.867374   -18710.205    1966.8064   -16743.399 
 6780000    296.82975    297.76242   -123.75026    87.831617   -18699.549    1946.8397    -16752.71 
 6790000    294.78743    297.25777   -409.50321    185.12297   -18709.718    1933.4446   -16776.273 
 6800000    299.23648    298.21498     434.9727    202.88479   -18762.465     1962.625    -16799.84 
 6810000    292.44213    297.89589     179.1808    217.09495   -18799.923    1918.0624   -16881.861 
 6820000    290.78032    297.62853   -91.392882    10.173704   -18710.478    1907.1629   -16803.315 
 6830000    305.50793    297.43891   -549.99221    126.74989   -18703.831     2003.758   -16700.073 
 6840000    300.04065    297.72442    701.25692    69.264624   -18768.708    1967.8994   -16800.809 
 6850000    290.08894    297.25724   -49.439007    150.02155   -18714.312    1902.6283   -16811.683 
 6860000    300.71431    297.16374    120.32177   -110.76146   -18700.213    1972.3177   -16727.896 
 6870000    294.92209    297.56599   -124.42167   -44.735007   -18640.763    1934.3278   -16706.435 
 6880000    300.54257    297.68312   -276.52714   -245.62642   -18761.212    1971.1913    -16790.02 
 6890000    299.63533    297.52632   -197.73145    152.99253   -18722.552     1965.241   -16757.311 
 6900000    292.91105    297.60249    39.211104    121.70562    -18695.87    1921.1379   -16774.732 
 6910000    300.88326    297.36693    508.60872    137.91793   -18760.246    1973.4258    -16786.82 
 6920000    294.82223    298.00216   -925.04071    179.64572   -18765.102    1933.6729   -16831.429 
 6930000    296.45679     298.0853    171.48929    22.843209   -18642.933    1944.3936   -16698.539 
 6940000    299.72371    297.50457    7.1850252   0.20323724   -18612.003    1965.8206   -16646.182 
 6950000     291.4834    297.17832   -363.13626    -62.73617   -18729.432    1911.7743   -16817.658 
 6960000    307.94788    297.17696    1.2920551    38.316299   -18712.451    2019.7611    -16692.69 
 6970000    295.04114    297.47143     751.6662    18.895199   -18689.338    1935.1087   -16754.229 
 6980000    295.07747    297.43258    66.898031    110.51831   -18729.161     1935.347   -16793.814 
 6990000    301.03567    297.59921    6.6194468   -3.5129255   -18686.127    1974.4254   -16711.702 
 7000000    293.81216    297.11067    312.75704   -88.275784   -18669.726    1927.0481   -16742.678 
 7010000    292.30742    297.33141     569.2806   -104.13799   -18771.091    1917.1788   -16853.912 
 7020000    301.67657    297.66376   -304.98866    136.01432   -18755.884     1978.629   -16777.255 
 7030000    302.28695    297.50622   -321.77181    25.699754   -18606.298    1982.6323   -16623.666 
 7040000    296.06489    297.63767     564.0875     59.78985   -18676.238    1941.8232   -16734.414 
 7050000    302.78832    297.22082   -396.36711   -16.825742   -18708.305    1985.9207   -16722.384 
 7060000    300.26887    297.38387    560.74594    148.66106   -18835.548    1969.3962   -16866.152 
 7070000    298.77761    297.56143    238.20477    105.88998   -18746.829    1959.6153   -16787.213 
 7080000    303.50255    298.08309    371.92154    64.622454    -18705.29    1990.6051   -16714.685 
 7090000    297.30823    297.81301   -117.12271    129.13882   -18748.279     1949.978   -16798.301 
 7100000    302.89985    297.75925   -7.6650636    35.533368   -18673.657    1986.6522   -16687.005 
 7110000      305.028    297.33205    766.94251    83.225991   -18641.005    2000.6103   -16640.395 
 7120000    300.41551    296.69901    505.83527    31.517416   -18709.076     1970.358   -16738.718 
 7130000    302.57435    297.94128   -310.32875    63.454783   -18755.909    1984.5173   -16771.392 
 7140000     295.7952    297.40089    522.25749    45.506074   -18756.603    1940.0544   -16816.549 
 7150000    296.25774    298.02136   -736.80137    57.158076   -18707.052     1943.088   -16763.964 
 7160000    308.84698     297.3835    217.27784    59.261285   -18705.704    2025.6581   -16680.045 
 7170000    298.47158    298.23199    286.72086    98.399719   -18753.668    1957.6082    -16796.06 
 7180000    305.66425    298.01967   -534.74427   -234.97818   -18735.838    2004.7832   -16731.054 
 7190000    296.77612    297.44238   -8.1773887   -21.667024   -18734.677     1946.488   -16788.189 
 7200000    295.49889    297.39495   -95.118274   -38.249144   -18696.364    1938.1109   -16758.253 
 7210000    292.80948    297.25807   -610.43085   -200.81543   -18757.156    1920.4717   -16836.685 
 7220000    295.58627    297.60044   -56.401612    147.08298   -18720.174    1938.6841    -16781.49 
 7230000    302.22841    297.47049   -326.32388   -8.3014824   -18752.166    1982.2483   -16769.918 
 7240000    292.62571    297.40595     11.15204   -58.435815   -18658.855    1919.2664   -16739.588 
 7250000    294.48774    297.71794    114.31548    242.64439   -18690.641     1931.479   -16759.162 
 7260000    306.92922    297.43911   -642.94979    -117.4004   -18633.656    2013.0799   -16620.576 
 7270000    290.91256    297.43896    834.75239    266.94276   -18700.603    1908.0302   -16792.573 
 7280000    299.02009    296.95129   -762.27425    48.752808   -18665.975    1961.2057   -16704.769 
 7290000    302.93181    297.42137    115.02875    135.79395   -18730.399    1986.8618   -16743.537 
 7300000     298.5157    297.63888    402.27506    243.75922    -18718.43    1957.8975   -16760.532 
 7310000    288.94494    298.03956   -582.75574   -17.594619   -18705.309    1895.1251   -16810.184 
 7320000    301.80378    298.19677    655.03273   -85.289426   -18631.166    1979.4633   -16651.703 
 7330000    292.55224     297.1803   -191.21413   -176.77809   -18656.645    1918.7845    -16737.86 
 7340000    290.60297    297.68241   -879.88541    13.994918   -18696.528    1905.9997   -16790.528 
 7350000    285.23687    297.45885   -33.293069    216.61032   -18755.333    1870.8046   -16884.528 
 7360000    290.13018    297.32645    32.003977    118.18201   -18758.018    1902.8988   -16855.119 
 7370000    292.70107    297.48172   -164.99342   -249.09306   -18765.756    1919.7606   -16845.995 
 7380000    290.75951    296.85897    -157.0347     19.55812   -18761.788    1907.0264   -16854.762 
 7390000    296.30475    297.39992    392.99406   -185.26244   -18611.856    1943.3964    -16668.46 
 7400000    300.94266    297.17312    304.06928    101.41589   -18775.715    1973.8154   -16801.899 
 7410000    300.89684    297.31567   -18.311212    153.24792   -18754.005    1973.5149    -16780.49 
 7420000    295.66737    297.50213   -138.54337   -29.504721   -18681.871     1939.216   -16742.655 
 7430000    295.46652    297.61563    431.31453    243.74959   -18781.379    1937.8986    -16843.48 
 7440000    298.38202    296.94975    796.51818    96.859158   -18680.564    1957.0208   -16723.543 
 7450000    291.10051    297.64956    741.31463    5.7281544   -18735.066     1909.263   -16825.803 
 7460000    284.23764    297.94478   -235.63587    81.658403   -18736.495    1864.2509   -16872.244 
 7470000    295.22181    297.48684    25.068577    90.320799   -18706.534    1936.2936    -16770.24 
 7480000    296.49553    297.41118    194.99707   -50.967395   -18702.519    1944.6477   -16757.871 
 7490000    303.93625    297.75315     232.7104    3.4293498   -18748.858    1993.4497   -16755.409 
 7500000    293.58368    298.07234   -459.11547   -55.922444   -18678.017    1925.5495   -16752.467 
 7510000    298.48974    297.55021    691.28362   -111.63593   -18758.517    1957.7273    -16800.79 
 7520000    301.20707    298.20469   -304.08452   -184.95262    -18674.73    1975.5496    -16699.18 
 7530000    303.82654    298.11318    230.79532     -118.633   -18694.838    1992.7302   -16702.108 
 7540000    298.57341    298.09063    775.35209    213.07046   -18751.795     1958.276   -16793.519 
 7550000    292.60542    297.46195    201.90875    68.707747   -18715.469    1919.1333   -16796.336 
 7560000     302.1733    298.64235    408.97837    48.453872   -18698.567    1981.8869    -16716.68 
 7570000    295.21012    297.28557    669.42004    78.313853   -18796.746     1936.217   -16860.529 
 7580000    293.62363    297.18406    -124.3861   -28.117133   -18701.245    1925.8115   -16775.434 
 7590000    297.38932    297.90206    686.94007   -3.6862846   -18735.431    1950.5098   -16784.921 
 7600000    286.94687    297.44573    231.88027    42.328125   -18609.481    1882.0201   -16727.461 
 7610000      294.879    296.86618     757.7565   -101.07239   -18710.252    1934.0452   -16776.206 
 7620000    298.66697    298.28193   -63.254362    136.49653   -18594.698    1958.8897   -16635.808 
 7630000     297.4842     298.1861   -194.98012    61.824499   -18718.165    1951.1321   -16767.033 
 7640000     289.1768    297.68227    352.38162    241.57246   -18764.145    1896.6458   -16867.499 
 7650000    299.37269    297.39354    451.79366    131.54164   -18696.758    1963.5183   -16733.239 
 7660000    290.39637    297.46354    299.61369    132.72913   -18646.082    1904.6447   -16741.438 
 7670000    292.71798    297.61733    165.53982    190.68687   -18727.899    1919.8716   -16808.027 
 7680000    291.33865    298.01877     111.4863    235.33821   -18714.644    1910.8249   -16803.819 
 7690000    298.02788    297.14719   -433.72113   -74.550266   -18768.946     1954.698   -16814.248 
 7700000     299.5653    297.66779    58.065744    105.41217   -18721.163    1964.7816   -16756.381 
 7710000    291.63837    298.00586    274.06028   -92.445103   -18638.002    1912.7906   -16725.211 
 7720000    295.12735    297.91494    246.44727    110.41306   -18629.126    1935.6741   -16693.452 
 7730000     298.7841    298.43783    634.63633     95.76343   -18680.026    1959.6579   -16720.368 
 7740000    303.45001    297.25087   -522.73337   -119.15523   -18640.201    1990.2606    -16649.94 
 7750000    299.05794    297.57669    333.82697   -113.27864   -18775.736     1961.454   -16814.282 
 7760000    302.01467    297.68071    549.53082   -101.75308   -18835.418    1980.8465   -16854.572 
 7770000    291.90648    297.21329     -36.6573   -98.846542   -18610.892    1914.5491   -16696.343 
 7780000     287.3601    296.85126    513.74645   -48.432144   -18721.991    1884.7305    -16837.26 
 7790000     297.5643    297.30539    -26.35459    87.729362   -18777.206    1951.6575   -16825.549 
 7800000    296.35197    297.11075    -135.7473    16.101939    -18754.47    1943.7061   -16810.764 
 7810000     305.7136    297.13737   -150.88785    228.72307   -18706.817    2005.1069    -16701.71 
 7820000    296.37744    297.25894    523.13219    213.58662   -18701.478    1943.8731   -16757.605 
 7830000    297.26496    298.27196    102.18807    183.61923   -18716.996    1949.6942   -16767.302 
 7840000    297.98704    297.15494    51.079683    183.94495   -18660.326    1954.4302   -16705.896 
 7850000    292.61903    297.49237    107.45909   -173.84273   -18708.797    1919.2226   -16789.575 
 7860000     286.1265    296.40947    374.56841    121.67737   -18645.167    1876.6395   -16768.527 
 7870000    304.72292    297.51286   -291.94995    120.34984   -18783.209    1998.6093     -16784.6 
 7880000    302.01881    297.34452    162.90339    11.602387   -18665.938    1980.8736   -16685.064 
 7890000    293.42256    298.13211   -88.065211    224.34749   -18748.132    1924.4928    -16823.64 
 7900000    297.70741    297.54648   -307.18031    156.46284    -18816.07    1952.5962   -16863.473 
 7910000    298.32206    297.04901    332.50825     7.533003   -18674.584    1956.6275   -16717.957 
 7920000     303.1253       297.05   -145.31639    56.887798   -18706.817    1988.1308   -16718.686 
 7930000    294.36142    297.47172    660.05394   -16.182527   -18683.048    1930.6505   -16752.397 
 7940000    294.50818    297.67444    321.36875    22.514174   -18692.908    1931.6131   -16761.295 
 7950000    296.26109    297.20706   -475.79383   -47.639376   -18701.578      1943.11   -16758.468 
 7960000    290.39383    297.34641     232.2942    115.54481   -18776.448     1904.628    -16871.82 
 7970000    290.75502     296.9957    -717.4448    31.095378    -18755.68    1906.9969   -16848.683 
 7980000     299.5234    298.56578    695.36882      10.1561     -18790.3    1964.5068   -16825.793 
 7990000    297.23853    297.45045   -1135.4508    111.31877   -18761.588    1949.5209   -16812.067 
 8000000     295.1714    297.48611   -458.85558   -125.47212   -18768.097     1935.963   -16832.134 
 8010000    302.52647    296.71989    2.9690931    9.2747445   -18709.191    1984.2033   -16724.988 
 8020000    305.45693    297.42908   -689.98047    4.8409659   -18648.592    2003.4235   -16645.169 
 8030000    299.99412    297.83518     629.5164    53.449366   -18765.355    1967.5942   -16797.761 
 8040000    295.35495     297.6628    -494.4092   -38.028877    -18693.74    1937.1669   -16756.573 
 8050000    300.09215    297.33448   -163.18503    -34.18571   -18783.665    1968.2371   -16815.428 
 8060000    303.69551    297.70369   -394.62369   -30.668135   -18684.043    1991.8707   -16692.172 
 8070000    303.76683    298.38592    961.72537     7.527725   -18749.775    1992.3385   -16757.436 
 8080000    291.99294    297.00273    1392.7146    101.67966   -18662.622    1915.1162   -16747.505 
 8090000    294.87741    296.57312    97.815706    11.968418   -18666.091    1934.0348   -16732.056 
 8100000    294.83701    297.23279   -403.82264    18.780619   -18652.583    1933.7698   -16718.813 
 8110000    296.00033    296.91694    917.10515   -132.53092   -18766.021    1941.3998   -16824.621 
 8120000    298.12061    297.87378    480.16238    40.824141   -18638.115    1955.3062   -16682.809 
 8130000    294.54029    297.36429   -255.70419     51.32766   -18705.771    1931.8237   -16773.947 
 8140000    297.84207    298.34261    386.78425    70.047246   -18620.322    1953.4794   -16666.843 
 8150000    287.94756     297.5339    68.159467    69.457168   -18816.011    1888.5835   -16927.428 
 8160000    306.47626    297.57045    350.93188   -3.7114137   -18789.213    2010.1091   -16779.104 
 8170000    291.23909    297.62832    186.85274    130.73071   -18773.802    1910.1719    -16863.63 
 8180000    286.35101    298.11104   -557.14743    66.378752   -18629.955     1878.112   -16751.843 
 8190000    298.48728    297.51967     265.6991    217.59922   -18690.868    1957.7111   -16733.157 
 8200000    299.71537    297.54404   -1067.6223     216.0658   -18729.708    1965.7659   -16763.942 
 8210000    292.51753    297.98863     633.7056    241.22439   -18716.916    1918.5569    -16798.36 
 8220000    297.90083    297.78511   -23.455099    188.99761   -18704.624    1953.8647   -16750.759 
 8230000    294.31251    297.58728   -252.96423   -59.715533   -18770.253    1930.3297   -16839.923 
 8240000    293.84768    297.28511   -319.43705    101.80176   -18716.844     1927.281   -16789.563 
 8250000    298.38923    297.26914    82.501585    61.935729   -18736.466     1957.068   -16779.398 
 8260000    298.22592    297.51358    499.76632    216.88149   -18773.072    1955.9969   -16817.075 
 8270000    294.46823    297.55093    272.12588    40.305224   -18721.132     1931.351   -16789.781 
 8280000     300.5515    297.11015    261.06062    73.220707    -18727.18    1971.2498    -16755.93 
 8290000    293.57562    297.37716    -724.7802   -113.70775   -18762.751    1925.4966   -16837.254 
 8300000     303.5457    297.57614   -440.55206   -29.043168   -18772.642    1990.8882   -16781.754 
 8310000    301.94064    297.58285    255.28403   -66.673765    -18749.08     1980.361    -16768.72 
 8320000    293.66946    296.77377   -436.38022   -82.290237   -18622.567    1926.1121   -16696.454 
 8330000    299.77933     297.7881   -22.261269    147.32572    -18652.66    1966.1854   -16686.474 
 8340000    296.80955     297.6513    602.01059      165.262   -18806.125    1946.7073   -16859.417 
 8350000    296.23108    298.16005    354.50247    50.454586   -18696.062    1942.9132   -16753.149 
 8360000     306.7907    297.37878    -37.51405    176.39894   -18644.359    2012.1714   -16632.187 
 8370000    302.73916    297.41371   -29.369288   -15.078453   -18625.158    1985.5983   -16639.559 
 8380000    297.60798     297.7046   -231.73636    142.78087   -18623.089     1951.944   -16671.145 
 8390000     293.6759    297.19766   -367.12616     163.1035   -18777.612    1926.1544   -16851.457 
 8400000    298.91852    297.44169   -776.98169    227.66632   -18715.571    1960.5395   -16755.032 
 8410000    301.85386    297.84123    1355.3679    44.077685   -18704.983    1979.7918   -16725.191 
 8420000     286.0665    297.26452    670.24467    115.26264   -18768.128     1876.246   -16891.882 
 8430000     292.4903     297.1766   -434.65245    63.325625   -18777.151    1918.3783   -16858.773 
 8440000    293.43599    298.26042   -325.18584    83.762466   -18755.463    1924.5808   -16830.883 
 8450000    298.27282    297.56639   -472.83696   -9.0955186   -18723.018    1956.3045   -16766.713 
 8460000    294.26556     298.2241    257.91844    21.828073   -18767.714    1930.0218   -16837.692 
 8470000     293.8922    297.07317   -368.54233    8.0381782   -18648.935     1927.573   -16721.362 
 8480000    302.45989    297.69864     308.8187   -118.46242   -18821.185    1983.7666   -16837.419 
 8490000    288.98801     298.0491    697.03521   -45.550503   -18697.291    1895.4075   -16801.884 
 8500000    297.08141    297.67012   -57.887394    65.780085   -18728.405    1948.4903   -16779.915 
 8510000    297.66959    296.82501    566.76923    107.84735   -18733.087    1952.3481   -16780.739 
 8520000    289.16668    297.61986   -799.21924    126.48986   -18661.035    1896.5794   -16764.456 
 8530000    296.66762    297.15759    155.26241   -84.459203   -18647.918    1945.7764   -16702.141 
 8540000    297.00941    297.25341   -15.766883    39.692946   -18676.212    1948.0181   -16728.194 
 8550000    307.73933    297.47959     230.0509    59.361101   -18734.265    2018.3932   -16715.872 
 8560000    299.78636    297.28523   -69.334401    92.465273   -18734.578    1966.2315   -16768.346 
 8570000    285.59912    298.02755    161.54249    20.275243   -18781.978    1873.1806   -16908.798 
 8580000    297.91189     297.6365   -865.99843   -62.439257   -18762.056    1953.9372   -16808.119 
 8590000    306.12113    298.31468   -537.82586   -129.91114   -18686.013    2007.7798   -16678.234 
 8600000     292.2701    297.29098    870.82964   -50.709585   -18679.334     1916.934     -16762.4 
 8610000    299.84391    298.23294    135.92402    163.69855   -18629.386    1966.6089   -16662.777 
 8620000    306.28094    297.64976    308.96159    32.178071   -18766.979     2008.828   -16758.151 
 8630000    300.84533    297.80841   -708.69251   -46.423518   -18736.841    1973.1771   -16763.664 
 8640000    308.66872    297.91171   -133.75444   -104.52065   -18715.899    2024.4889    -16691.41 
 8650000    292.20549    297.77038   -156.10842   -50.589822   -18689.446    1916.5102   -16772.936 
 8660000    298.19706    297.40304   -150.53222     41.87904    -18756.23    1955.8076   -16800.422 
 8670000    299.67618    298.16427    26.368013    2.4591084   -18719.482    1965.5089   -16753.973 
 8680000    291.82703    297.81668   -289.29893    41.458306   -18715.431    1914.0281   -16801.403 
 8690000    297.95549    297.75792     766.6216    104.19706   -18659.919    1954.2232   -16705.696 
 8700000    299.80419      297.376   -74.480212    108.12189    -18598.21    1966.3485   -16631.861 
 8710000    292.70006    297.49381    1044.0497   -15.413571   -18667.141     1919.754   -16747.387 
 8720000    289.91791     297.4199     -214.247    33.481483   -18736.305    1901.5065   -16834.799 
 8730000    296.16722    297.89371   -299.53803   -18.436276   -18761.873    1942.4943   -16819.378 
 8740000    306.25499    297.99681    127.46918     164.7057   -18651.475    2008.6578   -16642.817 
 8750000    297.64672     297.3711   -824.69434    51.939761   -18613.165    1952.1981   -16660.966 
 8760000    302.37953    297.76636   -11.201946   -228.31269   -18690.384    1983.2395   -16707.145 
 8770000    293.17471    297.36113    734.40306     138.1573   -18670.802    1922.8672   -16747.935 
 8780000    297.50511    296.63466    529.89685    156.65438   -18694.859    1951.2693    -16743.59 
 8790000    288.87692    297.71688   -277.76553    115.10179    -18741.58    1894.6789   -16846.901 
 8800000    302.18711    297.58505    -752.9574     133.3864   -18684.632    1981.9775   -16702.655 
 8810000    287.95608    296.97544     -450.602    6.9414077   -18720.435    1888.6394   -16831.795 
 8820000    298.30234    297.26145   -195.33531    242.20386   -18691.514    1956.4981   -16735.016 
 8830000    293.52661    297.17272    101.63808     106.0325   -18757.255    1925.1752    -16832.08 
 8840000    298.11204    297.27439    170.67309    257.18453   -18673.174      1955.25   -16717.924 
 8850000    295.53354    298.03329   -411.71436   -60.536893   -18737.954    1938.3382   -16799.616 
 8860000    294.01709    297.37836   -544.01411    14.546452   -18688.607    1928.3921   -16760.215 
 8870000    294.43829    297.69366    82.148872    204.77292    -18744.41    1931.1547   -16813.255 
 8880000    298.90699    297.96781   -270.43536    57.826137   -18662.954    1960.4639    -16702.49 
 8890000    305.37585    297.68531    213.86342     26.94448   -18723.559    2002.8917   -16720.668 
 8900000    296.96578    298.36347   -464.14968    103.57258   -18718.588    1947.7319   -16770.856 
 8910000    300.37018    297.71089    66.365811    48.628971   -18677.032    1970.0606   -16706.971 
 8920000    294.17949    297.25875   -216.82875    17.199155   -18750.685    1929.4573   -16821.228 
 8930000    296.77568    297.45443   -233.71053    172.78995   -18754.329    1946.4851   -16807.844 
 8940000    301.93188    297.80688     138.9323   -227.29419   -18740.028    1980.3035   -16759.725 
 8950000    295.02159    297.42607   -307.68925    210.80167   -18761.437    1934.9804   -16826.457 
 8960000    299.62384    298.02185    123.73414      113.384   -18646.118    1965.1656   -16680.952 
 8970000    292.30554    297.28189    402.79549    12.508329   -18649.105    1917.1665   -16731.939 
 8980000    296.46241     297.8031    58.671129   -98.802509   -18746.008    1944.4304   -16801.577 
 8990000    291.92947    297.21331   -327.86206    80.531795   -18621.977    1914.6999   -16707.277 
 9000000    299.60566    297.47428    925.14821     69.05181   -18816.381    1965.0463   -16851.335 
 9010000    299.58752    297.63496   -31.465869    68.481099   -18768.951    1964.9273   -16804.024 
 9020000    301.74119     297.4286   -469.93499    171.90416   -18655.206    1979.0528   -16676.153 
 9030000    303.03248    297.22039    388.14532    124.73018   -18816.531    1987.5221   -16829.009 
 9040000    292.58093    297.32348    192.03438    99.121379   -18732.164    1918.9727   -16813.191 
 9050000    296.77209    297.70644   -109.49555    85.359828   -18828.178    1946.4616   -16881.716 
 9060000    300.60398    297.13154    710.21095   -7.7151603   -18749.874    1971.5941   -16778.279 
 9070000    297.80782    297.28924   -558.92784   -39.494914   -18738.082    1953.2547   -16784.827 
 9080000    301.29162    297.23556   -429.86769   -4.2778006   -18736.278    1976.1042   -16760.173 
 9090000    300.82849    297.99801    392.52291      89.6688   -18745.764    1973.0666   -16772.697 
 9100000    299.03909    297.40762    72.610538    -65.16252   -18736.725    1961.3303   -16775.395 
 9110000    293.91759    297.53913    190.67882   -45.871463   -18680.739    1927.7395       -16753 
 9120000    296.24905     297.1632    -161.8527   -62.332017   -18747.085    1943.0311   -16804.054 
 9130000    301.99826    297.50385     900.9132   -59.076272    -18668.03    1980.7388   -16687.291 
 9140000    305.22884    297.29773    290.17589    125.59376   -18689.781    2001.9275   -16687.854 
 9150000    292.59166    297.76892   -194.10673   -101.67516   -18804.162    1919.0431   -16885.119 
 9160000    298.64516     297.2895     260.3746    168.93398   -18706.655    1958.7466   -16747.908 
 9170000    303.16194     298.3292    174.83724    129.64954   -18720.703    1988.3712   -16732.332 
 9180000    302.36352    297.06556    16.676313    125.27196   -18748.252    1983.1345   -16765.118 
 9190000    294.15048     297.9066   -75.473491    150.03809   -18696.265     1929.267   -16766.998 
 9200000    298.49537    297.07432       1090.8    159.22393   -18692.107    1957.7642   -16734.343 
 9210000    295.82902    297.60955    510.07242    3.5159986   -18737.095    1940.2762   -16796.819 
 9220000     289.2924    297.71734    184.87994     117.4507     -18672.6     1897.404   -16775.196 
 9230000    308.72903     297.7413    234.92448    147.12794   -18660.124    2024.8845   -16635.239 
 9240000    300.02354    297.41756   -771.33576    58.356973   -18717.369    1967.7871   -16749.581 
 9250000    299.63175    297.84807   -25.343838    5.5618577   -18691.736    1965.2174   -16726.518 
 9260000    301.22741    297.95065   -460.54339    6.0954953    -18649.34     1975.683   -16673.657 
 9270000    297.09337    297.75571    -21.28294   -87.557793   -18799.185    1948.5688   -16850.616 
 9280000    290.70143    296.81879    487.49485   -122.34533   -18723.879    1906.6455   -16817.233 
 9290000    302.92074    297.11098    778.29142    102.47753   -18667.627    1986.7892   -16680.837 
 9300000    298.67329    297.35654    375.15162    12.046242   -18777.155    1958.9311   -16818.223 
 9310000    298.48561    296.81098   -116.38181   -65.595185   -18696.308    1957.7002   -16738.608 
 9320000    299.82085    297.19903     516.4078   -85.323637   -18614.493    1966.4577   -16648.035 
 9330000    294.55856    297.77756   -207.91146    29.439761    -18745.16    1931.9435   -16813.217 
 9340000    303.68086    297.79897   -342.64369   -105.03933   -18677.359    1991.7746   -16685.584 
 9350000    300.96706    297.74791    -56.32002   -127.67716   -18776.888    1973.9754   -16802.913 
 9360000    297.21196    297.74598    -303.6606    79.831759   -18740.149    1949.3466   -16790.802 
 9370000    305.57084     297.2849   -475.98672    80.043358    -18699.15    2004.1706   -16694.979 
 9380000     292.7955    297.48119    4.6799263     68.56563    -18772.37      1920.38    -16851.99 
 9390000    292.76714    297.59146   -275.80759    34.378798   -18663.284     1920.194    -16743.09 
 9400000    288.32955    297.95823    257.14803   -176.14827   -18792.915    1891.0889   -16901.826 
 9410000    296.50765    296.97637    584.89683   -29.646662   -18752.388    1944.7272   -16807.661 
 9420000    294.80109    297.47911   -470.19195   -32.432868   -18720.276    1933.5342   -16786.742 
 9430000    302.47483     298.0026    617.66369    25.704476   -18692.245    1983.8646   -16708.381 
 9440000     313.0676      297.503    525.93536    51.252502   -18748.385    2053.3402   -16695.045 
 9450000    295.21313    297.47632     -32.1196   -54.280341   -18739.844    1936.2367   -16803.607 
 9460000    301.68493    297.72026    280.67448   -22.047809   -18714.458    1978.6838   -16735.775 
 9470000    297.75493    297.87797    602.71028    227.72565   -18726.466    1952.9078   -16773.558 
 9480000    300.41541    297.66197    819.36868    19.384379   -18760.307    1970.3573    -16789.95 
 9490000    303.90527    297.36739    955.09806    89.751524    -18792.52    1993.2465   -16799.273 
 9500000    303.97562    297.77603   -122.14219    205.90123   -18691.052    1993.7079   -16697.345 
 9510000    297.23459    297.67107    135.68517    130.13365   -18668.688     1949.495   -16719.193 
 9520000    304.44099    297.31771   -63.512856    81.802743   -18677.683    1996.7601   -16680.923 
 9530000    296.88559     297.3512   -302.02928    55.529242    -18680.81     1947.206   -16733.604 
 9540000    292.14996     297.6169   -85.944434    96.697874   -18732.804    1916.1461   -16816.658 
 9550000    294.56298    297.77092   -691.95477   -113.58653   -18704.601    1931.9725   -16772.628 
 9560000    302.41881    297.36873   -229.48782    26.959514   -18653.643    1983.4972   -16670.146 
 9570000    297.23334    298.07837     544.7065     164.4104   -18636.745    1949.4868   -16687.258 
 9580000     296.1862    297.34066   -291.31145    122.57278   -18735.916    1942.6189   -16793.298 
 9590000    299.88941    297.78142   -215.91138   -60.072395   -18778.058    1966.9074   -16811.151 
 9600000    295.72014    297.49124   -416.70366    161.76091   -18736.951    1939.5621   -16797.389 
 9610000    297.54283    297.45791    186.09592    3.3667276   -18689.088    1951.5167   -16737.571 
 9620000    295.24319    297.82761    323.62282    179.75563   -18671.081    1936.4339   -16734.647 
 9630000    291.47569    297.66082   -673.68149    125.09694   -18653.486    1911.7237   -16741.762 
 9640000    304.75297    297.15781   -181.27411    23.347598   -18801.115    1998.8064   -16802.308 
 9650000    293.38764    297.03082   -830.16122     101.8425   -18670.945    1924.2638   -16746.682 
 9660000    294.64992    298.35189   -389.00515   -97.419341   -18717.888    1932.5428   -16785.345 
 9670000    299.91812    298.18735   -82.563572    62.910348   -18754.483    1967.0957   -16787.387 
 9680000    290.26186    297.21572    3.2270355    149.38637    -18737.19    1903.7624   -16833.427 
 9690000    294.59584    296.66434    434.44693    100.11586   -18717.387    1932.1881   -16785.199 
 9700000    297.37721    297.61211    342.00853    72.217774   -18710.477    1950.4304   -16760.046 
 9710000    294.10113    297.26697   -493.91038    39.920687    -18611.94    1928.9434   -16682.996 
 9720000    292.43297    297.32267   -264.02851   -58.135005   -18767.834    1918.0022   -16849.832 
 9730000    297.92454    297.54097    415.28816   -63.272607   -18860.226    1954.0202   -16906.206 
 9740000      292.245    298.02527    34.684528    189.76425    -18725.84    1916.7694   -16809.071 
 9750000    291.94959      297.332   -170.31076   -108.09781   -18797.397    1914.8319   -16882.565 
 9760000    300.84774    297.24776   -90.529999    88.005816    -18651.72    1973.1928   -16678.527 
 9770000    296.90671    298.48983    194.47087    158.14022   -18681.492    1947.3445   -16734.148 
 9780000    294.52153    297.69075   -513.93477   -113.46642   -18658.264    1931.7006   -16726.564 
 9790000    303.80946    298.03888   -566.71947   -17.863806   -18693.486    1992.6181   -16700.867 
 9800000    296.40937      297.853    485.80755    65.527971   -18685.189    1944.0826   -16741.107 
 9810000    292.77741    297.57754   -405.48727    4.3397918    -18675.85    1920.2614   -16755.588 
 9820000    303.42264    297.32151    64.695871   -81.802806   -18807.072     1990.081   -16816.991 
 9830000    305.53337    297.27535   -487.27431     33.69984   -18706.815    2003.9248    -16702.89 
 9840000    304.10884    297.69457    638.13248   -67.148645   -18646.125    1994.5817   -16651.543 
 9850000    294.13563    297.53503   -682.62199    124.65029   -18731.972    1929.1696   -16802.803 
 9860000    296.31866    297.23779   -383.85664    32.029918   -18735.749    1943.4877   -16792.262 
 9870000    298.16875    297.74986   -375.36727   -43.350679    -18721.69    1955.6219   -16766.069 
 9880000    308.36191    298.41341   -104.51037    9.6306612    -18750.33    2022.4766   -16727.854 
 9890000     301.5974    297.21008   -191.37968    75.571101   -18784.402    1978.1097   -16806.292 
 9900000    300.13197    297.74704   -1010.1032    48.823487   -18759.342    1968.4983   -16790.844 
 9910000    300.92663    297.17094    204.74342    156.92053   -18619.824    1973.7103   -16646.113 
 9920000    292.07924    296.96776    526.45882   -28.770781   -18786.745    1915.6822   -16871.062 
 9930000    299.14691    296.94209   -555.77485     10.60397   -18701.284    1962.0375   -16739.246 
 9940000    303.28899    297.43547    -204.1925    91.024895   -18642.955    1989.2044   -16653.751 
 9950000     301.4442    297.13868    20.700039    -90.68856   -18692.347    1977.1049   -16715.242 
 9960000     295.7243    298.03576   -513.02232    99.878698   -18740.897    1939.5894   -16801.308 
 9970000    299.65705    297.60086     216.9144    198.89164   -18719.026    1965.3834   -16753.643 
 9980000    295.93504    297.49079    719.32038    166.48601   -18650.556    1940.9716   -16709.584 
 9990000    306.46946    297.90869    -177.6089    121.78912   -18703.615    2010.0645    -16693.55 
10000000    294.69497    297.49473    -797.3628    43.191871   -18614.919    1932.8382   -16682.081 
10010000    293.24697    296.90675    580.79092    2.8871814   -18784.606    1923.3411   -16861.265 
10020000    297.79187    297.14998    262.17458    2.9457026   -18746.894    1953.1501   -16793.744 
10030000    305.83021     298.3672   -457.94113   -133.67454   -18697.078    2005.8718   -16691.206 
10040000    298.02281    297.50103   -57.178648   -44.694104    -18711.56    1954.6648   -16756.896 
10050000    302.16019    297.29792   -403.00661    192.94715   -18678.756    1981.8009   -16696.955 
10060000    303.85034    297.48815    865.51807   -31.556078   -18765.515    1992.8862   -16772.628 
10070000    300.26346     297.3909   -324.12802    -90.08056   -18627.907    1969.3607   -16658.546 
10080000    295.72805    297.50644    292.12843    86.928394   -18637.692     1939.614   -16698.078 
10090000    300.41222    298.13159   -223.43626    113.72235   -18739.257    1970.3363    -16768.92 
10100000    291.35025    297.35756    224.18417    0.5047478   -18756.362    1910.9009   -16845.461 
10110000    297.06926    298.13023   -28.671971    98.610047   -18740.155    1948.4106   -16791.745 
10120000    301.30291    297.63997   -258.28616    48.831184   -18772.765    1976.1782   -16796.587 
10130000    289.89913      297.422    374.51055    103.72656   -18661.984    1901.3834   -16760.601 
10140000    304.44451    297.82905    843.06731    251.05495   -18669.753    1996.7832   -16672.969 
10150000    298.18278    297.77884    103.06945    186.43499   -18686.571     1955.714   -16730.857 
10160000    295.26784     297.7658   -662.54569   -5.9097328   -18699.199    1936.5955   -16762.603 
10170000    294.41677    297.20674    646.18775    157.43564   -18717.394    1931.0136    -16786.38 
10180000    299.49758    298.36198   -672.61013    113.27563   -18596.963    1964.3375   -16632.626 
10190000    300.45949    297.58864   -22.503317   -115.89658   -18685.576    1970.6464    -16714.93 
10200000    289.39295    297.91016   -317.52999   -86.570167   -18744.003    1898.0635    -16845.94 
10210000    296.25065    297.38384   -259.42192    -76.03999   -18632.431    1943.0416   -16689.389 
10220000    300.83684    297.76177    166.27674    140.32994   -18701.167    1973.1213   -16728.045 
10230000    302.55794    297.61319   -894.21186    209.89039   -18700.346    1984.4096   -16715.937 
10240000    301.66788    297.48486    602.40456    -30.52138   -18717.978     1978.572   -16739.406 
10250000     304.3313    297.51697    368.67433    86.718266   -18708.366    1996.0407   -16712.325 
10260000    299.25405    297.24413    200.99096    84.828605   -18814.288    1962.7402   -16851.548 
10270000    292.22763    297.24617    -12.08417   -51.476336   -18721.676    1916.6555   -16805.021 
10280000    298.46451    297.50803   -192.12911   -117.53235   -18724.137    1957.5618   -16766.575 
10290000    299.20682    297.16305    214.62434   -107.73372   -18655.702    1962.4304   -16693.272 
10300000    292.88919    297.39579    813.94433   -85.308041   -18712.516    1920.9945   -16791.522 
10310000    290.84984    298.39156    82.265283    4.4665597   -18798.186    1907.6189   -16890.568 
10320000     299.4758      297.548   -57.050651   -141.96631   -18694.595    1964.1946     -16730.4 
10330000    288.79575    297.64007   -38.152444   -50.201075   -18774.112    1894.1466   -16879.966 
10340000    292.02511    297.41804   -33.524046    25.390511   -18695.898    1915.3272   -16780.571 
10350000    296.81977    297.56476   -174.69022   -29.622978   -18735.817    1946.7743   -16789.043 
10360000    300.17845    297.69873    78.368992    64.752182    -18802.73    1968.8032   -16833.927 
10370000    300.75048    296.95413    385.69063    187.55416   -18715.604     1972.555   -16743.049 
10380000    300.33446    296.67302   -119.19344    85.847819   -18818.832    1969.8263   -16849.006 
10390000    293.96801    297.85847   -183.34585   -92.816869    -18683.88    1928.0702    -16755.81 
10400000    291.87218     297.1298    650.99432   -73.760338   -18772.532    1914.3241   -16858.208 
10410000    291.44706      296.992     730.4547    130.87045   -18751.913    1911.5359   -16840.377 
10420000    295.93434    298.03506    323.36894    10.601611   -18714.669     1940.967   -16773.702 
10430000    301.84769    296.76078   -57.144016    39.026651   -18739.535    1979.7513   -16759.784 
10440000    297.88123    297.33979   -364.44636    34.546074   -18634.836    1953.7362     -16681.1 
10450000    303.26618    298.03236    677.52584    22.322283   -18723.375    1989.0549    -16734.32 
10460000    299.87242     297.5828   -1056.7381    154.07207   -18728.592    1966.7959   -16761.796 
10470000    293.18084    297.65783    32.943298   -146.23428   -18748.209    1922.9074   -16825.302 
10480000    290.41687     297.2926    237.79007    114.80093   -18741.018    1904.7791   -16836.239 
10490000    303.23722    297.40406   -235.35103   -143.43017   -18743.205    1988.8649    -16754.34 
10500000    296.53472    297.83512    1315.4435    60.405756   -18775.996    1944.9047   -16831.092 
10510000    289.85348    297.78518   -220.63812   -14.485094   -18691.852    1901.0839   -16790.768 
10520000     301.7522    297.71204   -438.35387    20.486436   -18743.304     1979.125   -16764.179 
10530000    301.01306    297.81969   -554.53874   -61.386045   -18690.985    1974.2771   -16716.707 
10540000    288.02739    298.22715    344.83786    83.812867   -18761.973     1889.107   -16872.866 
10550000    290.64314    297.03102    93.748905   -6.8698264   -18693.381    1906.2631   -16787.118 
10560000    300.13905    297.64804    39.456005    20.300092   -18698.132    1968.5447   -16729.588 
10570000    290.75508    298.27479    413.75709      29.3599   -18721.459    1906.9974   -16814.461 
10580000    304.09768    298.37292   -340.98358   -57.130634   -18653.878    1994.5085    -16659.37 
10590000    298.56916    298.05417    516.48726   -23.815569   -18628.362    1958.2482   -16670.114 
10600000    291.98021    298.25306    106.68683    32.529342    -18665.76    1915.0327   -16750.727 
10610000    306.34026    297.44505    214.23513   -74.988142    -18866.55     2009.217   -16857.333 
10620000    292.13059    297.90977    65.572933    -51.54135   -18736.175     1916.019   -16820.156 
10630000    313.30308    298.26857   -563.23274   -83.778832   -18776.911    2054.8846   -16722.026 
10640000    297.31516      298.218    104.91186   -229.05722   -18654.768    1950.0234   -16704.745 
10650000     296.6216     297.7444   -362.16361   -4.5295763     -18703.7    1945.4746   -16758.226 
10660000    295.95346    297.69746   -641.34791   -74.716166   -18732.699    1941.0924   -16791.606 
10670000    291.59358    297.97746   -218.78251    102.66512   -18680.195    1912.4969   -16767.698 
10680000    297.85022    297.30464   -16.343202    180.89913   -18629.942    1953.5328   -16676.409 
10690000    298.11807    297.20972   -17.040311    -8.630799   -18627.871    1955.2896   -16672.581 
10700000    296.48502    296.94171    519.58984    52.362845   -18612.478    1944.5787   -16667.899 
10710000    303.69347    297.70439   -90.760225      19.4362   -18635.156    1991.8573   -16643.298 
10720000    309.49443    298.08786   -979.05043    70.117874   -18696.894    2029.9045   -16666.989 
10730000    300.00417    297.38585   -247.51714   -14.401914    -18653.45    1967.6601    -16685.79 
10740000    299.43379    297.04464   -75.841187    8.7153195   -18746.398    1963.9191   -16782.479 
10750000    294.55324    297.98142   -1298.5907   -130.91063   -18751.767    1931.9086   -16819.859 
10760000    294.32986    298.54278   -975.90697    89.503489   -18672.053    1930.4435    -16741.61 
10770000    302.61794    297.81856   -105.76148    64.017234   -18787.495    1984.8032   -16802.692 
10780000    296.84971    296.97552    411.45846    75.960016   -18735.533    1946.9707   -16788.562 
10790000    297.36351    297.97564   -140.59897    177.59524   -18729.584    1950.3406   -16779.243 
10800000    301.20586    297.59946    137.24982   -81.961713   -18770.205    1975.5417   -16794.664 
10810000    297.03397    296.88561    11.256314    91.188197   -18756.166    1948.1792   -16807.987 
10820000    293.98644    297.14197    457.03796    155.96608   -18758.103    1928.1911   -16829.912 
10830000    301.01776    297.07747   -376.54562   -51.858559   -18676.078     1974.308    -16701.77 
10840000    299.26379    298.13364    295.59944   -43.335059    -18621.52    1962.8041   -16658.716 
10850000    292.30304    297.11312   -50.739404    25.185994   -18766.618    1917.1501   -16849.468 
10860000    302.64926    297.41136   -100.02778   -16.555519   -18774.284    1985.0086   -16789.276 
10870000    305.68457     297.1006    509.31922    22.044772   -18683.762    2004.9166   -16678.845 
10880000    297.16687    298.17158    366.72782    101.28749   -18742.448    1949.0509   -16793.397 
10890000    296.37063    297.60635    7.4697022   -30.326995   -18731.709    1943.8285   -16787.881 
10900000    294.44329    297.22528    677.71442    84.126165   -18700.588    1931.1875     -16769.4 
10910000    292.79751    297.87741    84.877849    120.07117   -18664.344    1920.3932   -16743.951 
10920000    292.80968    297.38576   -19.553398     10.22768   -18688.461     1920.473   -16767.988 
10930000    297.68314     297.5936    246.11317   -23.169307   -18711.225     1952.437   -16758.788 
10940000    294.82332    296.91605     126.6282   -75.555378   -18730.677      1933.68   -16796.997 
10950000    293.09385    297.74231     292.7934    68.537456   -18702.789    1922.3369   -16780.452 
10960000    302.44712    297.51131    549.34299    85.596273     -18650.9    1983.6828   -16667.217 
10970000    306.27677    297.59785    6.6480466    104.33588    -18703.84    2008.8006   -16695.039 
10980000    301.91327    297.98531     1003.056    131.50667   -18770.692    1980.1814    -16790.51 
10990000    299.10817    297.52856   -279.61917   -42.701616   -18755.543    1961.7834    -16793.76 
11000000    300.82964    297.47277    770.74686    202.50642   -18754.246    1973.0741   -16781.171 
11010000    297.95025    297.75132  -0.56653839    194.99665   -18678.714    1954.1889   -16724.525 
11020000    305.37525    297.83634    71.154875    107.30402   -18618.744    2002.8878   -16615.856 
11030000    298.53193    297.16018    340.17234    -14.61268   -18754.787     1958.004   -16796.783 
11040000    290.99504    297.50481    83.131801     45.42622   -18660.557    1908.5712   -16751.986 
11050000    298.33183    297.52545    250.94674    51.271542   -18654.207    1956.6915   -16697.516 
11060000    302.43932    297.93504   -502.82653     77.44795    -18728.81    1983.6317   -16745.179 
11070000    293.41733    297.26243   -333.60306    21.184845   -18789.789    1924.4584    -16865.33 
11080000    298.41393    297.74708    177.69503    147.99268   -18656.865      1957.23   -16699.635 
11090000    306.56924    297.88286    511.94547    174.59934   -18558.572    2010.7189   -16547.853 
11100000    297.15124    297.90035   -775.65069   -8.9675084   -18714.029    1948.9484   -16765.081 
11110000    300.59843    298.15862   -54.664713     -5.37254   -18692.138    1971.5577    -16720.58 
11120000    282.28463    297.51952   -642.66227    32.893961   -18674.412    1851.4416    -16822.97 
11130000    292.62557    297.19704    435.75639   -148.68161   -18704.214    1919.2655   -16784.948 
11140000    296.68036    297.30758   -141.38702     11.81699   -18710.259      1945.86   -16764.399 
11150000    299.63613    297.51557    829.37866   -32.642209   -18614.012    1965.2462   -16648.766 
11160000    305.53961    297.52342    229.27792    22.426581   -18666.999    2003.9658   -16663.034 
11170000    303.24355    297.48691    128.17933   -76.483834   -18694.236    1988.9065    -16705.33 
11180000    291.56176    298.20536    176.39889     98.28885   -18688.169    1912.2882   -16775.881 
11190000    301.98923    297.39373   -317.10369   -42.391075   -18737.168    1980.6796   -16756.488 
11200000    291.17848    297.85681    1003.9433   -9.8901398   -18558.261    1909.7743   -16648.487 
11210000    295.59541    297.07682     133.3233     16.50105   -18686.712     1938.744   -16747.968 
11220000    301.48153    297.54652    329.30164    63.890906   -18695.612    1977.3497   -16718.262 
11230000    286.93019    297.66544   -68.546041    24.425214   -18632.044    1881.9107   -16750.133 
11240000    296.18285    296.74432   -51.431041    166.46836   -18672.331    1942.5969   -16729.734 
11250000    286.05968    297.45658    741.86724    116.28336   -18744.752    1876.2013   -16868.551 
11260000    298.16991    297.25684   -423.68853    69.979927   -18706.144    1955.6296   -16750.515 
11270000    293.27569    297.64811    4.3878873    34.393426   -18626.988    1923.5295   -16703.459 
11280000    295.44203    297.43266     873.0413    93.131518   -18671.436     1937.738   -16733.698 
11290000    296.19566     297.2791   -178.67054    5.8137039   -18736.074    1942.6809   -16793.393 
11300000    298.46189     296.6903     49.65979    45.248619   -18706.543    1957.5446   -16748.998 
11310000    291.69943    297.79895     420.7594    116.14539    -18764.58    1913.1911   -16851.389 
11320000    304.45667    296.98346   -122.54831    89.062197   -18819.466     1996.863   -16822.603 
11330000    297.06912    297.69097   -43.423147    13.463375   -18671.697    1948.4097   -16723.287 
11340000     302.0912    297.44056   -173.06607    22.693362   -18774.125    1981.3484   -16792.776 
11350000    298.28347    297.17011    622.54986   -33.596555   -18638.322    1956.3744   -16681.947 
11360000    291.55162    298.21082   -545.16804    91.056044   -18628.056    1912.2217   -16715.835 
11370000    300.08422    297.78938   -356.29582    199.00889   -18673.561    1968.1851   -16705.375 
11380000    290.28645    297.82245    -283.4498     161.4567   -18675.038    1903.9237   -16771.115 
11390000    303.02373    297.61924   -26.165326    102.50277   -18706.248    1987.4647   -16718.783 
11400000    298.96862    298.02578    62.724838    21.709686   -18696.175    1960.8681   -16735.306 
11410000    295.43894    297.56181   -280.20193    79.721204   -18683.815    1937.7177   -16746.097 
11420000    295.86268    297.21867    23.020882    152.21183   -18716.628     1940.497   -16776.131 
11430000    293.34429    297.64886    447.22356   -51.119056    -18703.25    1923.9794   -16779.271 
11440000    295.79928    297.86579    1230.8994    202.16145   -18729.474    1940.0811   -16789.393 
11450000    299.86194    297.42531   -468.30108    172.33903    -18740.71    1966.7272   -16773.983 
11460000    304.64227    297.51211    383.81883    29.651385   -18719.629    1998.0803   -16721.548 
11470000    301.70585    297.86432   -383.52494      173.807   -18697.511     1978.821    -16718.69 
11480000    295.72507    297.93387    581.26806    114.71891   -18745.747    1939.5944   -16806.153 
11490000    298.45663    297.72925   -46.489259    47.537546   -18766.465    1957.5101   -16808.955 
11500000    303.63803    297.74309    1187.4395    195.16114   -18796.221    1991.4938   -16804.727 
11510000     297.5611    297.57605    603.04412    42.651339   -18599.208    1951.6365   -16647.572 
11520000    299.75506    297.63917   -586.50451    193.00624    -18680.53    1966.0262   -16714.504 
11530000    304.78724    297.35009    -59.16328   -26.736495   -18789.027    1999.0311   -16789.996 
11540000    286.12613    297.44773    249.17461    103.04656   -18642.078    1876.6371   -16765.441 
11550000    296.68292    298.19991   -516.62675   -32.972904   -18660.336    1945.8767   -16714.459 
11560000     294.1252    297.57284    596.94177   -16.203695   -18743.297    1929.1012   -16814.196 
11570000    296.95979     297.3855    18.177599    223.19322   -18687.677    1947.6926   -16739.985 
11580000      293.587    297.29471   -68.912726    267.61409   -18621.379    1925.5713   -16695.807 
11590000     294.4588    297.33745    486.14331    87.905851   -18718.041    1931.2892   -16786.752 
11600000    290.85648    297.80286    145.37514   -61.784209    -18718.85    1907.6624   -16811.187 
11610000      302.521    297.14486   -81.486007    177.64254   -18721.427    1984.1674    -16737.26 
11620000    292.38334    297.53594    78.248321    170.39832   -18764.454    1917.6767   -16846.777 
11630000    296.83046    297.89956   -314.40718    -132.4624   -18683.047    1946.8444   -16736.202 
11640000    301.51788    297.77659    -367.5503    -8.074959   -18738.633    1977.5882   -16761.044 
11650000    295.35032    297.82311    312.87853   -31.728754   -18726.345    1937.1365   -16789.209 
11660000    300.46988    297.79178    68.137055    13.992381   -18707.601    1970.7146   -16736.887 
11670000    284.21651    297.49593   -128.21257   -0.7445737   -18777.743    1864.1124   -16913.631 
11680000    297.32485    298.17353    726.01808    34.736958   -18631.149     1950.087   -16681.062 
11690000    304.81506    297.97105    310.97408      215.684   -18611.915    1999.2136   -16612.702 
11700000    297.27599     297.4016    77.093354   -135.54787   -18770.308    1949.7666   -16820.541 
11710000    297.42922     297.4947    360.56384    181.62157   -18746.915    1950.7716   -16796.144 
11720000      308.177    297.92321   -23.719827   -18.896521   -18651.199    2021.2638   -16629.936 
11730000    282.59996    297.75992   -753.06883   -21.599397   -18752.074    1853.5097   -16898.564 
11740000    294.59527    297.09176   -827.70239   -217.64377   -18769.959    1932.1843   -16837.774 
11750000      290.904    296.91239   -718.94535   -101.89615   -18655.161    1907.9741   -16747.187 
11760000     299.4367    297.32624    267.88796   -85.299453   -18727.824    1963.9381   -16763.886 
11770000    301.80232    297.88129   -691.03567    64.927388   -18657.787    1979.4537   -16678.333 
11780000    306.74244    297.61815    516.77386    169.14366   -18643.355    2011.8549     -16631.5 
11790000    297.70569    297.49237    175.80964   -11.037382   -18782.295    1952.5848    -16829.71 
11800000    303.24886    297.15014   -1074.9249   -72.924667   -18702.522    1988.9413    -16713.58 
11810000    300.28049    298.05108    255.31762   -164.84123    -18658.97    1969.4724   -16689.498 
11820000    306.92861    297.38215   -58.572493   -22.680963   -18742.568    2013.0759   -16729.492 
11830000    300.63231    298.39383    550.97882    64.600559   -18807.776    1971.7799   -16835.996 
11840000    294.39116    297.29336    718.50077   -103.39455   -18664.575    1930.8456   -16733.729 
11850000    296.85174    297.57865   -123.28788   -8.9040837   -18754.547     1946.984   -16807.564 
11860000    306.76202    297.90077   -340.09386   -42.182968   -18751.675    2011.9833   -16739.691 
11870000    301.19196     298.3833   -255.58119    40.622672   -18692.687    1975.4505   -16717.237 
11880000    300.13693    297.27816   -621.67655    83.204681   -18716.229    1968.5308   -16747.699 
11890000     301.9614    297.61383   -615.01907   -91.862771   -18720.089    1980.4971   -16739.591 
11900000     293.3673    297.55621     465.6271    22.807389   -18778.746    1924.1303   -16854.616 
11910000    296.99363    297.08486    22.913188    106.53709   -18651.869    1947.9146   -16703.954 
11920000    295.40806    297.47934   -873.47187   -175.71841    -18729.71    1937.5152   -16792.195 
11930000     301.4456    297.26533     921.4029    14.429771   -18766.235    1977.1141   -16789.121 
11940000    294.43487    297.18462    695.89319     200.9055   -18747.325    1931.1323   -16816.192 
11950000    293.86162    297.03195   -326.47098    180.75216   -18751.481    1927.3724   -16824.108 
11960000    298.89858    298.10437   -462.47707    82.699444   -18745.731    1960.4088   -16785.322 
11970000    298.42798      297.789   -330.04771    15.700544   -18689.171    1957.3222   -16731.848 
11980000    293.50851    296.67692   -307.06815    96.985215   -18710.629    1925.0565   -16785.572 
11990000    295.15089    297.41801    196.17671   -150.80443    -18646.09    1935.8285   -16710.262 
12000000    306.57695    297.23494   -61.828405    56.299121   -18677.673    2010.7695   -16666.904 
12010000    292.20564    297.49451   -601.37819   -112.32184   -18768.672    1916.5113   -16852.161 
12020000    301.87095    296.97274   -275.76036    -105.3167    -18790.52    1979.9039   -16810.616 
12030000    296.65341    297.64569    412.00368     288.8294   -18687.286    1945.6832   -16741.602 
12040000    294.61084    297.42991   -42.131002    197.56901   -18771.541    1932.2864   -16839.255 
12050000    301.16914    297.73215    281.50437    104.55562   -18830.041    1975.3008    -16854.74 
12060000    309.14634    297.67074    124.92316   -61.185899   -18683.121    2027.6215     -16655.5 
12070000    301.56851    297.04834    622.29171    210.13673   -18727.068    1977.9202   -16749.148 
12080000    289.89662    297.68704    178.13727    10.887633   -18596.701    1901.3669   -16695.334 
12090000    302.90113    298.64734   -26.202541    156.27388   -18765.209    1986.6606   -16778.549 
12100000     307.3441    298.09145    164.99267   -70.310262   -18730.696     2015.801   -16714.895 
12110000    286.46287    297.82496    119.56347   -22.424124   -18704.508    1878.8457   -16825.662 
12120000    289.94121    298.13949   -75.623905    305.08797   -18697.021    1901.6594   -16795.362 
12130000    297.11943    297.77726   -769.12733    149.62686   -18697.482    1948.7397   -16748.742 
12140000    290.50436     297.9031   -106.17185   -131.42376   -18759.507    1905.3529   -16854.154 
12150000    302.46355    297.14178    682.07001    76.821979   -18679.647    1983.7906   -16695.856 
12160000     301.6981     297.6392   -918.33194    59.720239   -18589.297    1978.7702   -16610.527 
12170000    302.02903    297.91192   -370.06673      52.7062   -18700.418    1980.9407   -16719.478 
12180000     301.3645    297.72171   -118.54665    71.400695   -18741.426    1976.5822   -16764.844 
12190000    295.38845     297.6043    294.09206    139.67109   -18762.417    1937.3866   -16825.031 
12200000    292.83692    296.39257    169.62466     66.28753   -18738.835    1920.6517   -16818.183 
12210000     287.9615    297.16696   -446.34889    240.60884   -18634.219    1888.6749   -16745.544 
12220000    291.73341    297.99672   -172.73335    83.891196   -18668.955     1913.414   -16755.541 
12230000    303.10247     297.3149    315.98323   -57.425258   -18806.826    1987.9811   -16818.845 
12240000    290.49346    297.25308    -330.8904   -45.869697   -18691.864    1905.2815   -16786.582 
12250000    288.72594     298.3687    270.17035    21.991891   -18701.388    1893.6887   -16807.699 
12260000    300.47828    297.58138    371.06242    21.002485   -18623.757    1970.7697   -16652.987 
12270000    298.91142    297.26047   -181.09259     -75.9734   -18777.736     1960.493   -16817.243 
12280000    304.12432    297.22621    251.86199   -7.3996103    -18707.51    1994.6832   -16712.827 
12290000    304.93029    297.87255   -70.567323    259.77126   -18769.977    1999.9694   -16770.007 
12300000    305.30545    298.14887   -211.92705   -63.115048   -18774.688      2002.43   -16772.258 
12310000    293.23588    297.56669   -123.63533   -30.460813   -18783.698    1923.2683    -16860.43 
12320000    298.85513    297.58094    312.84225   -41.857717   -18804.334    1960.1237   -16844.211 
12330000    292.54487     297.5989    41.154322   -34.694812    -18800.57    1918.7362   -16881.834 
12340000    294.61423    297.58938   -782.37919    269.69181   -18750.069    1932.3087    -16817.76 
12350000    307.13655    297.17242   -147.39912   -12.755408   -18795.164    2014.4397   -16780.724 
12360000    293.32747    298.28086   -686.30833    97.781281   -18700.486    1923.8691   -16776.617 
12370000    296.50231    297.42982    140.78817    132.61473   -18692.922    1944.6922    -16748.23 
12380000    295.75817    297.36211    132.16846   -10.827666   -18670.285    1939.8115   -16730.473 
12390000     297.7075    297.31721    859.95425    -12.92844   -18671.363    1952.5967   -16718.766 
12400000    297.08773    297.90239    537.39429   -32.132774   -18627.596    1948.5318   -16679.064 
12410000    295.46395    297.34406   -962.20982   -46.390836   -18763.155    1937.8817   -16825.273 
12420000    300.87388    297.48488   -547.96001    123.28187   -18659.838    1973.3643   -16686.474 
12430000     298.5767    297.29661   -538.78147    98.023404   -18739.884    1958.2976   -16781.587 
12440000    295.85801    298.16754   -185.63954   -37.293006   -18753.918    1940.4664   -16813.452 
12450000    307.56284    297.56613    223.08115   -144.71098   -18780.394    2017.2357   -16763.158 
12460000    299.43152    297.93931    295.32936   -83.733084   -18820.047    1963.9042   -16856.142 
12470000    296.83794    297.86679   -57.826444    251.53218   -18761.172    1946.8935   -16814.278 
12480000    285.68992    297.14845   -562.44258    97.208849   -18634.215    1873.7761   -16760.439 
12490000     292.0188    298.20059   -653.32508   -14.600475     -18728.2    1915.2858   -16812.914 
12500000    299.17636    297.54237    468.07117    107.47377   -18737.804    1962.2307   -16775.574 
12510000    295.31985    297.11661   -70.486915    32.730159    -18742.91    1936.9367   -16805.974 
12520000    296.34383    297.67643   -635.10469    18.923368   -18667.056    1943.6527   -16723.403 
12530000    290.32266    297.29575     960.9786   -21.803792   -18724.216    1904.1612   -16820.055 
12540000    302.93844    297.45006   -224.40482     113.4347   -18730.424    1986.9053   -16743.519 
12550000    294.52953     297.2469   -254.21144   -38.064603   -18735.017    1931.7531   -16803.264 
12560000    290.56961    297.20059    362.31975   -12.228244   -18739.252    1905.7809   -16833.471 
12570000    296.29206    297.14142   -224.38361    23.777587   -18745.541    1943.3131   -16802.227 
12580000    304.41127    297.27783   -113.93598   -67.106828   -18791.107    1996.5653   -16794.542 
12590000    298.74803    297.37405   -130.38295    172.15491   -18722.821    1959.4213     -16763.4 
12600000    296.39561    297.59506    477.96153    -19.74064   -18703.844    1943.9924   -16759.852 
12610000     300.7807    298.17068    472.42679     101.3658   -18710.328    1972.7532   -16737.575 
12620000    291.46762    297.23203    778.50868    167.08848   -18793.105    1911.6707   -16881.434 
12630000    303.15756    297.97979    657.81346    85.336548   -18727.587    1988.3424   -16739.244 
12640000    294.26222     296.6819   -259.02394    77.069432   -18705.802    1929.9999   -16775.802 
12650000    293.48677    298.24864   -93.195427   -14.748622   -18670.369    1924.9139   -16745.455 
12660000    290.55831    297.71493   -585.84397    222.30314   -18651.113    1905.7068   -16745.407 
12670000    299.32251    297.12489    309.46915   0.69496269   -18734.237    1963.1892   -16771.047 
12680000    290.94035    297.16308   -664.30645   -45.842657   -18597.854    1908.2125   -16689.642 
12690000     292.1361    297.62582   -328.91966   -107.10906   -18811.975    1916.0551    -16895.92 
12700000    292.98007    297.46444    129.61145    3.5613757   -18672.345    1921.5906   -16750.754 
12710000    294.33546     297.8496    119.34876   -81.351296   -18654.511    1930.4803   -16724.031 
12720000     291.7363    297.49696    128.89552   -44.937517   -18648.343     1913.433    -16734.91 
12730000    304.11054    297.35223   -457.17534   -50.111498   -18743.404    1994.5928   -16748.812 
12740000    294.02484    297.12606    137.48064    105.48618   -18671.027     1928.443   -16742.584 
12750000    300.46357    297.04508    165.84611    90.384906   -18676.345    1970.6732   -16705.672 
12760000    299.39491    297.21538    30.217099    135.74418   -18756.195    1963.6641   -16792.531 
12770000    295.76654    297.80776   -330.74092    191.56307   -18717.856    1939.8664    -16777.99 
12780000    305.54496    298.38051   -140.82858    13.321209   -18767.152    2004.0008   -16763.151 
12790000    304.26413    298.08622    136.70027   -120.11461   -18724.062    1995.6002   -16728.462 
12800000    288.41216    297.98936   -991.88059   -37.418097       -18687    1891.6307   -16795.369 
12810000    295.78256    297.66887    388.76819    174.86279   -18667.567    1939.9715   -16727.595 
12820000    296.17802    297.84706    214.22492    191.55437   -18712.467    1942.5652   -16769.901 
12830000    302.29154    297.33578    66.588373   -114.66615   -18688.762    1982.6624     -16706.1 
12840000    294.99618    297.21135   -80.767647    -14.75717   -18810.155    1934.8138   -16875.341 
12850000    301.66089    296.99979    1015.9709   -167.42874   -18710.736    1978.5261    -16732.21 
12860000     307.5167     297.1748    120.48119   -101.57954   -18787.398    2016.9331   -16770.465 
12870000    297.12281     297.6255   -143.99548     -133.021   -18709.297    1948.7619   -16760.535 
12880000    299.29326    297.38562    361.64737   -93.350457   -18687.611    1962.9974   -16724.614 
12890000    297.70168    298.11397   -9.1586899    154.41546   -18784.956    1952.5586   -16832.397 
12900000     304.2832    297.34267     351.9943   -1.7486481   -18717.284    1995.7253   -16721.559 
12910000    306.03952    298.19822   -269.77398    48.442142    -18664.14    2007.2446   -16656.896 
12920000    305.75552    297.78265   -204.13799   -31.506215   -18756.168    2005.3819   -16750.786 
12930000    301.78334    297.43597    -80.03064   -94.530712    -18698.35    1979.3292   -16719.021 
12940000     295.6462    297.74857     319.2199    112.69822   -18674.136    1939.0771   -16735.059 
12950000    301.75333    297.68793    456.62741    114.68998   -18801.279    1979.1324   -16822.147 
12960000    289.97097    297.29162   -810.25934    27.042055   -18703.722    1901.8546   -16801.867 
12970000    296.76222     297.8176    405.77877    13.145041   -18758.465    1946.3968   -16812.068 
12980000    291.33722    296.97969     472.3527    37.044816   -18705.711    1910.8155   -16794.896 
12990000    300.17032    297.85056    281.38526   -70.698506   -18739.792    1968.7498   -16771.042 
13000000     296.8689    297.66629    107.16736   -52.325547   -18766.809    1947.0965   -16819.712 
13010000    290.09875    297.69956    29.478073    104.72193   -18759.902    1902.6927   -16857.209 
13020000    309.31682    297.91074   -663.53506   -4.5609978   -18736.594    2028.7396   -16707.854 
13030000    290.69003    297.12466   -507.87216    18.711696   -18688.574    1906.5707   -16782.003 
13040000    302.70035      297.273   -601.09394    136.27331   -18610.123    1985.3437    -16624.78 
13050000    302.74134    297.14294   -444.59118    -72.32182   -18733.282    1985.6126   -16747.669 
13060000    312.05386     297.6114   -16.231499    -60.30385   -18683.516    2046.6913   -16636.825 
13070000    300.46184    297.76767    52.194282   -70.358653   -18701.986    1970.6618   -16731.324 
13080000    302.06146    297.56366    519.04448   -50.003402   -18722.179    1981.1534   -16741.026 
13090000    306.07294    297.64767   -297.80549    107.87422   -18692.982    2007.4637   -16685.518 
13100000    294.37996    297.55026   0.19998812    76.336021   -18739.065    1930.7722   -16808.292 
13110000    295.60918    297.99875   -536.43926   -63.399403   -18771.054    1938.8343    -16832.22 
13120000    297.61529    297.15235   -955.91779   -15.266964   -18700.101    1951.9919   -16748.109 
13130000    299.65053       297.86    892.73398    191.20305   -18741.154    1965.3406   -16775.813 
13140000    297.16531    297.69248    1291.6609    98.087701   -18753.747    1949.0406   -16804.706 
13150000    294.60567    297.35383   -452.62718    13.432105   -18663.089    1932.2525   -16730.837 
13160000    291.55535     297.6418   -314.05129   -23.484906   -18657.433    1912.2461   -16745.187 
13170000    300.88287      297.444    478.63728    126.97542    -18756.96    1973.4232   -16783.537 
13180000     297.3736    297.13515   -224.29623   -13.039529   -18833.873    1950.4067   -16883.466 
13190000     298.7392    297.74343   -230.24328    125.72166   -18769.802    1959.3634   -16810.439 
13200000    301.33178     297.0991   -148.00171   -94.347374   -18667.936    1976.3675   -16691.568 
13210000    293.62296    297.69962   -258.64192   -81.427322   -18809.185    1925.8072   -16883.378 
13220000    297.14741    297.83203    594.51157   -108.43734    -18755.39    1948.9232   -16806.467 
13230000    294.64207    297.23021    182.08246    162.77917    -18695.04    1932.4912   -16762.549 
13240000    296.99044    297.43806    55.090022    167.27064   -18648.478    1947.8937   -16700.585 
13250000    295.72068    297.97242   -169.32128    102.43377   -18750.377    1939.5656   -16810.812 
13260000      298.816    297.41463    205.58573    18.654851   -18783.786    1959.8671   -16823.919 
13270000     291.7492    297.78017    -272.3585   -81.360475   -18772.748    1913.5175   -16859.231 
13280000    293.10441    297.98651   -142.30341  0.055337915   -18650.805    1922.4061   -16728.399 
13290000    293.61027    297.22188    781.36776   -12.047971   -18658.812    1925.7239   -16733.088 
13300000    294.38521    296.89101   -198.09977   -95.773943   -18672.816    1930.8066    -16742.01 
13310000    288.50927    297.97688   -373.27957    221.41369   -18679.591    1892.2676   -16787.323 
13320000    301.55121    297.59003     353.9335    84.382546   -18694.786    1977.8068    -16716.98 
13330000    301.38554    298.15506    475.12983    257.04224   -18810.357    1976.7202   -16833.637 
13340000    302.04893    297.50618   -1067.9506   -180.26996   -18728.493    1981.0712   -16747.422 
13350000    293.88842    297.24405   -897.58714   -38.728297   -18736.258    1927.5482    -16808.71 
13360000    294.57702     296.9415     27.06333    66.014385    -18725.43    1932.0646   -16793.366 
13370000    301.88055    297.50972   -23.646186    48.472205   -18739.733    1979.9668   -16759.766 
13380000    287.51116    297.49154   -146.07346    79.099037   -18669.241    1885.7212   -16783.519 
13390000    302.73403    297.57546    190.62341    117.31705     -18748.2    1985.5646   -16762.636 
13400000    295.03393    298.11747    17.854002    246.30823   -18757.832    1935.0614   -16822.771 
13410000    297.99821    298.20472    12.414133   -28.970189   -18640.559    1954.5034   -16686.056 
13420000     304.5016    298.37466   -123.53442   -10.990599   -18712.784    1997.1577   -16715.627 
13430000     301.4882    298.05261   -90.723949    13.468152   -18677.249    1977.3935   -16699.855 
13440000    300.65477    298.16536   -12.221692   -58.974413   -18754.759    1971.9272   -16782.832 
13450000    299.08054    297.80642    196.36253   -17.451728   -18665.659    1961.6022   -16704.057 
13460000     297.5648    297.33995   -375.77372    74.669063   -18753.607    1951.6608   -16801.946 
13470000    302.00291    298.09909    820.11527    134.25741   -18714.827    1980.7694   -16734.058 
13480000    303.13231    297.92415   -376.11136    1.1335378   -18598.788    1988.1769   -16610.611 
13490000    298.30823    297.92052   -88.039802   -41.987519   -18676.369    1956.5368   -16719.833 
13500000    306.54796    297.95635    10.508397   -141.37403   -18696.507    2010.5793   -16685.928 
13510000    303.08373    297.85798    269.58969   -32.118733   -18690.043    1987.8582   -16702.185 
13520000    304.97331    298.14477    237.99762   -3.9003832   -18750.409    2000.2515   -16750.158 
13530000    284.57105    297.61868    65.944487     119.8338   -18720.694    1866.4377   -16854.257 
13540000     297.4268    297.43208    116.10281   -40.677963   -18772.996    1950.7557    -16822.24 
13550000    293.46705      297.511    164.97469   -57.636197    -18748.69    1924.7846   -16823.906 
13560000    296.05825    297.32544   -1196.5254    121.51087   -18790.779    1941.7797   -16848.999 
13570000    306.40253    297.76097   -126.60222   -1.6772801   -18659.578    2009.6255   -16649.953 
13580000    299.58331    297.61698    18.447701    130.91584   -18800.551    1964.8997   -16835.651 
13590000    302.69365     297.1917    421.13469    38.301574   -18657.722    1985.2998   -16672.422 
13600000     303.8088    297.59783    -22.42907   -15.029474   -18705.937    1992.6138   -16713.323 
13610000    300.98372    297.56499    79.052401    87.720054   -18801.416    1974.0847   -16827.332 
13620000    291.85624    297.92944   -153.78226    96.865105   -18703.185    1914.2196   -16788.965 
13630000    294.05941    297.01519   -328.51871    76.035893   -18705.719    1928.6697   -16777.049 
13640000     297.6349    297.55596    890.62806    81.929487   -18708.954    1952.1205   -16756.833 
13650000    296.48295    297.62969    92.126778    293.67555   -18660.692    1944.5652   -16716.126 
13660000    308.40104    297.47477    57.910945    53.665907   -18683.812    2022.7333   -16661.078 
13670000    302.92779    297.33117    361.18254    87.073887   -18617.445    1986.8354    -16630.61 
13680000    296.44441    297.83099    493.71154    79.811983   -18653.995    1944.3124   -16709.683 
13690000    293.57816    297.56476   -225.93728    161.12689   -18752.519    1925.5133   -16827.006 
13700000    295.54596    297.94641   -246.55372    12.108295   -18690.222    1938.4197   -16751.802 
13710000    291.70784    297.47866   -800.42134    17.335488   -18686.309    1913.2463   -16773.063 
13720000     308.1149    298.10182   -114.17106   -97.660948   -18646.529    2020.8566   -16625.673 
13730000    303.23222    298.29668    442.84188    77.439419   -18776.647    1988.8322   -16787.815 
13740000    292.12224    297.77938    121.56244    36.126383    -18721.83    1915.9643   -16805.866 
13750000     292.7249    297.61133   -546.30756    28.788217   -18671.494     1919.917   -16751.577 
13760000    307.34093    297.55947   -697.06507   -82.272779     -18762.3    2015.7802    -16746.52 
13770000    296.27474    296.94724   -137.91426   -46.587179   -18645.442    1943.1996   -16702.243 
13780000    289.47076    297.07713    358.35662   -89.650364   -18735.717    1898.5738   -16837.143 
13790000     302.0909    297.20675    -546.1692    155.87479   -18760.255    1981.3465   -16778.909 
13800000    303.34467    297.47369    673.80842    48.070184   -18651.346    1989.5697   -16661.777 
13810000     292.2444    296.94971    162.33577    168.93145   -18672.023    1916.7654   -16755.258 
13820000    289.44359    297.80668    635.40077    74.892893   -18644.645    1898.3956    -16746.25 
13830000    302.72936    297.37474   -306.68856   -90.521519   -18676.371     1985.534   -16690.837 
13840000    299.78734    297.40912   -612.67959   -80.484562   -18732.929    1966.2379   -16766.691 
13850000     293.3073    297.44769    73.508491    131.38192   -18679.057    1923.7368    -16755.32 
13860000    288.63616    297.65999   -219.41657    101.16073    -18724.74    1893.0998    -16831.64 
13870000    297.69593    297.36352   -541.19955    200.43485   -18687.946    1952.5208   -16735.425 
13880000       305.79     297.7913   -472.92648    57.067841    -18706.57     2005.608   -16700.962 
13890000      291.683    297.77185   -152.79546   -24.984571   -18696.606    1913.0834   -16783.523 
13900000    295.76796    297.88615    -226.6316   -59.232208   -18715.507    1939.8757   -16775.632 
13910000    300.09319    297.65733    224.26179   -28.027951   -18654.863    1968.2439   -16686.619 
13920000    297.17028    297.32165    371.27468    -80.50287   -18725.692    1949.0732   -16776.619 
13930000    294.31621    297.95327    343.14171   0.43946028   -18835.733     1930.354   -16905.379 
13940000    307.25755     296.9892    338.05768    72.346569   -18691.058    2015.2334   -16675.825 
13950000    298.15778    297.15014   -627.66448   -224.76057   -18673.667      1955.55   -16718.117 
13960000    294.22929    297.54085   -56.631906    -171.8623   -18796.405    1929.7839   -16866.621 
13970000    302.86558    298.05761    313.49719    3.8155167   -18678.066    1986.4274   -16691.638 
13980000    300.14305    298.15454   -466.33865    111.16538   -18756.383    1968.5709   -16787.812 
13990000    299.72231    297.79736    -527.3876   -50.386127    -18738.31    1965.8114   -16772.499 
14000000    300.64986    297.39895   -339.23841   -102.88638    -18682.91     1971.895   -16711.015 
14010000    298.76782    297.61965   -666.72648    -150.9776   -18756.129    1959.5511   -16796.578 
14020000    307.07994    297.87131    195.55678    11.768371   -18726.171    2014.0684   -16712.103 
14030000    307.61844    298.01476     81.58911    219.12717   -18672.695    2017.6004   -16655.094 
14040000    299.02382    297.27255   -96.638929   -125.27096    -18774.83    1961.2301     -16813.6 
14050000    296.21104    297.68242    902.76737     95.11219   -18744.096    1942.7818   -16801.314 
14060000    302.11105    297.62912    83.401651    242.87431   -18729.784    1981.4786   -16748.306 
14070000    292.90136    297.44778   -1114.8929   -71.341578   -18662.624    1921.0744    -16741.55 
14080000    284.95645    297.63391    170.08795    33.216808   -18762.095    1868.9654   -16893.129 
14090000    304.06921    296.73012    139.16197    36.267021   -18803.666    1994.3218   -16809.344 
14100000    305.96862    297.45126    226.21577   -36.794168   -18737.522    2006.7796   -16730.742 
14110000    303.87718    296.94981    768.51885   -4.2783126   -18604.156    1993.0623   -16611.093 
14120000    294.56361    296.77138   -289.52597  -0.45584385   -18722.073    1931.9766   -16790.097 
14130000     301.0237    297.85183     341.0053   -150.26617   -18689.877     1974.347    -16715.53 
14140000    305.16038    296.56759   -385.70453   -177.64226   -18782.821    2001.4785   -16781.342 
14150000    303.43292    297.63842   -463.44418    5.9929145   -18783.202    1990.1485   -16793.053 
14160000    298.47214    297.72511   -291.03487   -64.012439   -18715.884    1957.6118   -16758.272 
14170000     301.0287    298.04795    116.61943    75.451876     -18702.9    1974.3797    -16728.52 
14180000    290.53225    297.43185   -224.08739   -19.076615    -18704.53    1905.5359   -16798.994 
14190000    301.34616    297.52862   -57.724103   -68.194782   -18733.982    1976.4619    -16757.52 
14200000    298.99195    297.68588    325.57787    110.09399   -18768.637    1961.0211   -16807.616 
14210000    301.77982    297.77752    760.19339   -6.7412955   -18749.439    1979.3061   -16770.133 
14220000    290.55013    297.51204   -98.851859    168.70408   -18659.173    1905.6531    -16753.52 
14230000    293.81577    297.17671    147.20432   -85.568902   -18690.385    1927.0717   -16763.314 
14240000    302.25782    297.22218    149.46957   -145.31608   -18752.024    1982.4412   -16769.583 
14250000    299.25101    298.00635   -298.10262   -119.72389    -18608.95    1962.7202   -16646.229 
14260000    294.39071    297.62006    -790.5984   -109.39574   -18716.093    1930.8426    -16785.25 
14270000    299.52597    297.71989   -837.85784    2.7019157    -18730.63    1964.5236   -16766.107 
14280000    302.75224    297.62561    19.660463    85.555858   -18781.176    1985.6841   -16795.492 
14290000    289.81129    298.12473    151.82117     -4.25358   -18656.003    1900.8072   -16755.196 
14300000    300.72205    297.23774    386.47601     106.2573   -18706.507    1972.3685   -16734.138 
14310000    303.95267    297.45721   -53.129168    60.993001   -18716.171    1993.5574   -16722.614 
14320000     309.5495    297.44564   -679.50596   -117.01263   -18728.158    2030.2657   -16697.892 
14330000    294.36039    297.66685   -60.736355   -24.249642   -18706.992    1930.6438   -16776.348 
14340000     299.1461    297.79687   -58.619126    26.750733   -18665.847    1962.0322   -16703.815 
14350000      300.299    296.86896   -214.28309    7.2405199   -18708.418    1969.5938   -16738.824 
14360000    292.41916    298.13008    754.50226    154.37339   -18662.529    1917.9117   -16744.617 
14370000    302.97751    297.44383   -232.15995   -119.24216   -18752.756    1987.1615   -16765.594 
14380000    285.62476     298.0857   -226.62665     26.97373   -18720.541    1873.3487   -16847.193 
14390000    297.15669    297.15617   -249.52741   -142.55197   -18797.479    1948.9841   -16848.495 
14400000     308.6469    297.29481    522.24237   -26.406672   -18711.515    2024.3458   -16687.169 
14410000    296.69761    297.30665    484.41739    142.42134   -18690.387    1945.9731   -16744.414 
14420000    299.32821    297.42641   -16.489192   -3.9858203   -18670.586    1963.2266   -16707.359 
14430000    290.07963    297.09894   -583.83869   -23.992096   -18736.285    1902.5672   -16833.717 
14440000     302.8407    297.97563   -359.58378   0.97896317   -18717.231    1986.2643   -16730.967 
14450000    285.05802    297.52175   -851.81658    153.01728   -18696.124    1869.6316   -16826.492 
14460000    300.68708    297.54498   -404.00273   -27.694242   -18634.567    1972.1391   -16662.428 
14470000    300.36329     297.5955    -281.6615    99.002525   -18680.971    1970.0155   -16710.955 
14480000    294.03597    297.14258    109.01914    162.16285   -18779.687    1928.5159   -16851.171 
14490000    298.51999    297.56552   -574.46757     97.12381   -18782.722    1957.9256   -16824.797 
14500000    298.85929    297.82974    689.29515   -106.01555   -18588.544     1960.151   -16628.393 
14510000    298.22183    297.96093  -0.33793911    14.804792   -18676.288    1955.9701   -16720.318 
14520000    296.15947    297.22043   -704.48198     218.0364    -18678.36    1942.4435   -16735.917 
14530000     288.7947    297.60622   -59.619481   -108.12874   -18810.671    1894.1396   -16916.531 
14540000     303.5737    297.32037    731.51124    110.09121     -18647.7    1991.0718   -16656.628 
14550000    299.64439    297.74099    61.931243    107.03785   -18735.152    1965.3003   -16769.852 
14560000    306.84711    298.26598   -741.11227   -26.222386   -18733.054    2012.5414   -16720.513 
14570000    309.16273    297.77415    706.48832     115.7429   -18800.231     2027.729   -16772.502 
14580000    299.58953    297.48635    -203.1643    306.99963   -18694.783    1964.9405   -16729.842 
14590000    291.36179    298.09313   -501.87322   -12.603623   -18694.273    1910.9766   -16783.296 
14600000    297.71656    297.15602   -437.09682   -27.501457   -18714.826    1952.6561    -16762.17 
14610000    300.93919    297.93004    80.959304    173.90802   -18727.126    1973.7927   -16753.333 
14620000     296.1191    297.76664   -628.62033   -54.853615   -18744.999    1942.1788    -16802.82 
14630000    296.63839    297.35246    34.162091    179.93318   -18725.933    1945.5847   -16780.348 
14640000    298.44293    297.48645    339.23774    123.35992   -18808.258    1957.4202   -16850.837 
14650000    301.01079    297.87826    655.64574    65.883994   -18734.121    1974.2623   -16759.859 
14660000    302.10321    297.45456   -59.485227    51.581324   -18760.632    1981.4272   -16779.205 
14670000    297.93743    297.80522   -558.14197    73.793734   -18665.446    1954.1048   -16711.341 
14680000    295.21817    297.47961     509.7068    37.567806   -18748.075    1936.2698   -16811.806 
14690000    294.62465     298.0083     475.1933    31.008442   -18707.816     1932.377   -16775.439 
14700000    300.94386    298.08669    117.51914    86.769075   -18694.028    1973.8233   -16720.205 
14710000    301.73262    298.12937   -313.07429   -81.664181   -18759.242    1978.9965   -16780.245 
14720000    295.64853    297.60445    107.53581     98.74198    -18749.35    1939.0924   -16810.257 
14730000    297.05486    297.50339   -403.12024   0.96681953   -18710.005    1948.3162   -16761.689 
14740000    295.19706    298.08721    867.57323     82.16075   -18726.953    1936.1313   -16790.822 
14750000    296.09285    297.14088   -246.19484   -7.7921873   -18675.345    1942.0066   -16733.338 
14760000    300.08812    297.59038    189.35348    196.49045   -18550.709    1968.2107   -16582.498 
14770000     299.9532    298.24425   -193.87108     171.0309    -18756.19    1967.3258   -16788.864 
14780000    299.81777    297.95638   -295.26516    63.920957    -18731.61    1966.4375   -16765.173 
14790000    294.40069    297.07696    -364.0645    107.75488   -18671.516    1930.9081   -16740.608 
14800000    295.22886    297.99888    317.28056    82.068373   -18717.352    1936.3399   -16781.012 
14810000    302.20842    297.75195    515.65846   -85.997722   -18640.861    1982.1173   -16658.744 
14820000    294.31486    297.67754   -149.55314   -132.28781    -18717.72    1930.3451   -16787.375 
14830000    297.76374    296.96075   -586.31191    63.477649    -18694.75    1952.9656   -16741.785 
14840000    296.40424    297.05459    217.99031   -75.801779   -18799.754     1944.049   -16855.706 
14850000    287.48854    297.71147    83.457341   -36.897889   -18684.576    1885.5728   -16799.004 
14860000    303.50908    297.16772    12.263191      73.2241   -18688.682     1990.648   -16698.034 
14870000    303.02003    297.93563    328.29061    115.48331   -18777.868    1987.4404   -16790.427 
14880000    294.00532    297.63423    48.508032    136.20932    -18767.53    1928.3149   -16839.215 
14890000    300.53374    297.27552   -31.656514    167.86953   -18688.094    1971.1334   -16716.961 
14900000    295.86035    297.83602     667.1157    116.59217   -18816.998    1940.4817   -16876.516 
14910000    296.56425    296.91708    94.028334   -82.214749   -18713.043    1945.0984   -16767.944 
14920000    297.80684    297.63911   -122.12348    15.176157   -18598.706    1953.2483   -16645.458 
14930000    304.07351    297.80071    266.30963   -7.9587939   -18689.357      1994.35   -16695.007 
14940000    305.10736    296.93193    162.65506     127.0877   -18651.263    2001.1308   -16650.132 
14950000    300.48165    297.97831    300.72724    74.197743     -18673.9    1970.7918   -16703.109 
14960000    303.00542    298.07854    181.45848    53.127926   -18755.865    1987.3446   -16768.521 
14970000    309.31111    297.34484   -252.21143    41.190152   -18695.099    2028.7022   -16666.397 
14980000    301.82985    297.96465    347.16687   -38.299925   -18776.666    1979.6343   -16797.031 
14990000    299.91368     297.7437   -160.51494   -159.96276   -18686.009    1967.0666   -16718.942 
15000000    301.71415    297.37142    446.54169     80.58265    -18745.54    1978.8754   -16766.664 
15010000    292.30831    297.08087   -229.31686     47.44887   -18691.208    1917.1846   -16774.023 
15020000     295.9208    297.52369    444.52296    181.83639   -18712.556    1940.8782   -16771.678 
15030000    291.22941    297.57345    684.54905     9.645861   -18741.288    1910.1084   -16831.179 
15040000    299.25067    297.55045    486.43272    69.832884   -18707.683     1962.718   -16744.965 
15050000    300.70701    297.95006   -324.24268    52.181319   -18706.836    1972.2698   -16734.566 
15060000    300.30674    297.84661   -445.40851    19.991054   -18792.551    1969.6446   -16822.907 
15070000    292.93012    297.44874   -943.02393   -147.16793   -18688.427     1921.263   -16767.164 
15080000      303.431    297.19752    654.15549   -46.090894   -18778.852    1990.1359   -16788.716 
15090000    292.88509     297.6697    283.41455   -23.886962   -18718.738    1920.9676    -16797.77 
15100000    292.41399    298.37661    754.43862    125.33357    -18764.93    1917.8778   -16847.052 
15110000     289.7562    297.16688   -830.44493    108.82003   -18727.352     1900.446   -16826.906 
15120000     309.8503    297.43877    5.0833729   -7.0210749   -18699.142    2032.2386   -16666.903 
15130000    289.58051    297.35937     174.5859    119.04253   -18728.076    1899.2936   -16828.783 
15140000    283.21486     296.9374    808.91259   -24.348808   -18727.637    1857.5427   -16870.094 
15150000    303.28977    298.18474   -189.82872   -1.2851344   -18810.089    1989.2096    -16820.88 
15160000    290.76602    297.24468   -40.525292   -103.20771   -18740.166    1907.0691   -16833.097 
15170000    304.24852    297.55159   -577.55708   -60.426767   -18714.507    1995.4978   -16719.009 
15180000    307.63232     297.6974    288.06101    165.84223   -18608.954    2017.6914   -16591.263 
15190000    297.29899    297.84236    166.03614    56.812549   -18751.587    1949.9174    -16801.67 
15200000    291.78324    297.49149   -613.30621    28.476438   -18875.354    1913.7408   -16961.613 
15210000    311.24427     297.1137    432.71435    24.108111   -18781.856    2041.3814   -16740.474 
15220000    296.60754     297.8804    360.00855    139.87152   -18723.311    1945.3823   -16777.928 
15230000    297.59882    297.77386     220.5211    151.26733   -18693.581    1951.8839   -16741.697 
15240000    300.78348    297.94763    295.61853    98.349456   -18661.107    1972.7714   -16688.336 
15250000    288.11838    297.38491   -356.73084    113.68397   -18702.628    1889.7039   -16812.924 
15260000    292.58417    297.58788    566.58246    37.332366   -18780.443    1918.9939   -16861.449 
15270000    286.86159    297.72622   -202.02081    -76.87384    -18655.28    1881.4608   -16773.819 
15280000    304.32098    297.74024   -279.31615    29.674562       -18779     1995.973   -16783.027 
15290000    305.02378    297.99541   -590.46118   -101.59363   -18729.538    2000.5826   -16728.956 
15300000    301.68148    297.17401   -152.79812   -245.85528   -18731.312    1978.6612    -16752.65 
15310000    299.81441    297.32333   -439.34481   -158.16129   -18741.642    1966.4154   -16775.226 
15320000    296.36988     297.4746   -76.794486    6.2992635   -18731.842    1943.8236   -16788.019 
15330000    299.31934    297.96893   -63.217077   -7.8421225   -18645.642    1963.1684   -16682.473 
15340000    305.46685    297.67082    33.334312   -67.216689   -18767.429    2003.4886   -16763.941 
15350000    302.77825    297.03761    333.80809    40.554188   -18722.925    1985.8546   -16737.071 
15360000    298.71787     297.5865    352.89178     21.04207   -18696.117    1959.2235   -16736.893 
15370000    302.31753    296.88738   -510.67049    -26.09292   -18715.903    1982.8329    -16733.07 
15380000    295.03315    297.89029   -3.3575998   -24.057683   -18726.961    1935.0563   -16791.905 
15390000    292.59541    297.68673   -585.56223   -10.299355   -18666.402    1919.0677   -16747.335 
15400000    296.65604    297.89431    528.71775    114.95135   -18719.179    1945.7004   -16773.478 
15410000    301.30917     297.3345    1483.8699    87.800463   -18691.414    1976.2192   -16715.194 
15420000     298.3209      296.956    134.82397    92.233256   -18725.776    1956.6199   -16769.156 
15430000    292.67402    297.90926   -355.92296   -110.18187   -18735.874    1919.5832   -16816.291 
15440000    302.28295    296.97411    670.79455     10.96761   -18741.516    1982.6061    -16758.91 
15450000    291.09463    297.49488    -9.999547   -160.48619   -18654.785    1909.2244   -16745.561 
15460000    293.81283     297.7335    486.68375    125.27947   -18686.603    1927.0525    -16759.55 
15470000    296.73341    297.91677   -197.42828   -204.57632   -18665.797    1946.2079   -16719.589 
15480000    299.11472    298.33183     -794.197    -200.2811    -18749.04    1961.8263   -16787.213 
15490000    294.76234    297.96452   -6.5417609   -81.858581   -18783.945      1933.28   -16850.665 
15500000    294.94445     297.3542    75.757193   -13.714998   -18793.169    1934.4745   -16858.694 
15510000    303.76822    297.03733    707.17973   -202.39213   -18747.887    1992.3476   -16755.539 
15520000    294.88892    297.67763    1053.8056    96.837065   -18748.314    1934.1103   -16814.204 
15530000    291.33349    298.24927   -490.29714    225.41917    -18744.78     1910.791   -16833.989 
15540000    294.91231    297.73834   -359.91996   -149.51463   -18731.417    1934.2637   -16797.153 
15550000    298.75292     297.8051    578.30251     47.29275   -18702.498    1959.4534   -16743.045 
15560000    299.46168     297.5198     53.34407   -194.90729    -18765.46     1964.102   -16801.358 
15570000    301.87273    297.59574   -681.23295    -88.69586   -18641.638    1979.9155   -16661.722 
15580000    304.09648    297.73758    685.29644    36.514748   -18673.063    1994.5006   -16678.562 
15590000     303.4452    298.04503    646.41863     180.8905   -18721.297     1990.229   -16731.068 
15600000     294.7998    297.89774   -527.90443    72.676346   -18712.299    1933.5258   -16778.773 
15610000    301.08834    297.10144    158.46113   -72.972815   -18687.962    1974.7709   -16713.191 
15620000    289.26353    297.64492    182.62789    62.555868   -18688.657    1897.2146   -16791.443 
15630000    299.83244    297.62367   -147.94148    172.93497   -18760.737    1966.5337   -16794.204 
15640000    308.25224    298.20532    322.44304    8.2580712   -18689.718    2021.7573   -16667.961 
15650000    302.49533    298.25216    563.27504    -29.65341   -18701.387    1983.9991   -16717.388 
15660000    295.95427    297.48784     490.4265    58.143269   -18612.061    1941.0977   -16670.963 
15670000    304.56237    298.04542    1114.1285    163.38183   -18615.095    1997.5563   -16617.539 
15680000    295.12372    297.69366   -443.28112    131.18126   -18757.322    1935.6503   -16821.672 
15690000    293.31588    297.44093   -156.20644    40.947131   -18737.579    1923.7931   -16813.786 
15700000    301.24919    297.63164    511.88366    124.39678    -18726.36    1975.8259   -16750.534 
15710000    309.34127    296.66669    1071.7017     156.8353    -18760.21       2028.9    -16731.31 
15720000    296.19063    297.52788    388.93658    127.87705   -18551.002    1942.6479   -16608.354 
15730000     285.0245    297.77592   -589.73006    21.034984   -18704.622    1869.4117    -16835.21 
15740000    299.73242    297.37511   -318.35776    28.307211   -18763.919    1965.8777   -16798.041 
15750000    297.23459     297.9602     12.26835   -3.7487443   -18680.423     1949.495   -16730.928 
15760000    294.80668    298.28915   -17.691274   -82.355979   -18717.734    1933.5709   -16784.164 
15770000    304.08074    297.21648    60.170716    120.96283   -18806.401    1994.3974   -16812.004 
15780000    307.72278    297.00531    401.83706     94.07113   -18711.914    2018.2847    -16693.63 
15790000    300.05247     298.5377    35.165966   -5.4650499   -18796.038    1967.9768   -16828.062 
15800000    287.50335    297.66082    761.63953    78.548953   -18646.458      1885.67   -16760.788 
15810000    295.49859    297.52665    493.73227    21.397577   -18676.598     1938.109   -16738.489 
15820000    299.68479    297.39182     73.40339    66.136685   -18693.191    1965.5653   -16727.626 
15830000    294.97821    297.76803    164.68265    161.37163   -18775.665    1934.6959   -16840.969 
15840000    304.08487     297.0149   -403.23345    102.65973   -18742.623    1994.4245   -16748.198 
15850000    299.21561    297.93471    485.11271    105.11361   -18712.047    1962.4881   -16749.559 
15860000    295.71898    298.05195   -182.47856    248.11548   -18747.402    1939.5545   -16807.847 
15870000    295.74315    297.33722    179.83674   0.30531137   -18696.318     1939.713   -16756.605 
15880000     296.9036    297.47521    197.32868    163.10316   -18728.465    1947.3241   -16781.141 
15890000    302.57701    297.37217     43.20643   -79.633293   -18648.106    1984.5347   -16663.572 
15900000    303.23372    297.51247    420.26556    214.81087    -18731.57     1988.842   -16742.728 
15910000    288.01384    297.07673    108.58891   -2.5411126   -18653.231    1889.0182   -16764.213 
15920000    301.76471    297.80762    250.66703    185.85809   -18661.931    1979.2071   -16682.724 
15930000    293.90921    297.43058    668.71774    180.23446   -18695.341    1927.6846   -16767.657 
15940000    295.33312     298.1511   -752.63225    157.81941   -18697.737    1937.0237   -16760.713 
15950000    300.73186    297.32436    267.59178    149.30553   -18710.351    1972.4328   -16737.919 
15960000    297.93101    297.44588    187.72907   -34.468515   -18724.861    1954.0627   -16770.798 
15970000    280.42087    297.73047   -42.159198    -62.30127   -18737.787    1839.2176    -16898.57 
15980000    304.35786    297.25431    738.64158    117.10128   -18713.572    1996.2149   -16717.357 
15990000    295.70379    297.86344   -613.18154    213.97539   -18747.574    1939.4548    -16808.12 
16000000    291.37825    297.50145    638.32065    200.21856   -18778.087    1911.0846   -16867.002 
16010000    294.81915    297.53832   -240.32853    143.28939   -18698.087    1933.6527   -16764.434 
16020000    290.76481    297.82835   -125.85095    7.0707751   -18746.956    1907.0612   -16839.895 
16030000    299.28818    297.73876    -189.4774   -92.627715   -18715.102    1962.9641   -16752.138 
16040000    303.21028    297.71492   -561.72317    45.632432   -18698.963    1988.6883   -16710.274 
16050000    298.01693    297.55282    384.99824    -18.98701   -18680.182    1954.6262   -16725.556 
16060000    288.04174    297.90411   -181.84787    67.622602   -18759.604    1889.2012   -16870.403 
16070000    288.21659     297.1974    84.698633   -29.936608   -18752.907     1890.348   -16862.559 
16080000    292.25422    297.46467   -121.07254   -172.54548   -18711.365    1916.8299   -16794.535 
16090000    304.43916    296.83658    157.53352    45.911925   -18796.215    1996.7482   -16799.467 
16100000    304.80784    297.95629   -47.733833   -13.166941   -18633.422    1999.1662   -16634.256 
16110000    300.88123    297.37344    1412.9098    11.010423   -18701.899    1973.4125   -16728.486 
16120000    303.70893    297.53349    143.23293   -117.66397   -18759.491    1991.9588   -16767.532 
16130000    294.66097    297.48594     204.0209   -4.2970376   -18707.953    1932.6152   -16775.338 
16140000     290.0655     296.9449   -723.12474      229.736   -18664.978    1902.4745   -16762.504 
16150000    295.11621    297.98214      725.451    96.567417   -18688.694     1935.601   -16753.093 
16160000    299.52942     297.9718    240.85997    38.546568   -18729.092    1964.5463   -16764.545 
16170000    290.90334    297.79397    304.17341    39.656019    -18718.71    1907.9698   -16810.741 
16180000    299.23713    297.80978   -272.53983    69.330645   -18740.666    1962.6292   -16778.037 
16190000    295.19739    296.95865    15.392922     105.9428    -18614.87    1936.1335   -16678.737 
16200000    292.89664    297.62948    682.91497    29.768435   -18695.975    1921.0434   -16774.931 
16210000    294.36844    298.21629   -189.54586    -54.25134   -18781.319    1930.6966   -16850.623 
16220000    290.78223    297.27709    346.69965    36.870148   -18639.491    1907.1754   -16732.316 
16230000    298.68596    297.54046   -610.61884   -71.638255   -18756.169    1959.0142   -16797.155 
16240000    300.00929    297.72462   -377.17669    108.96239   -18611.815    1967.6937   -16644.121 
16250000     295.8118    297.33708   -324.67471    49.899982   -18718.469    1940.1632   -16778.306 
16260000    306.46452    297.78012    432.36815   -141.02052   -18684.823     2010.032   -16674.791 
16270000    296.43899    297.77246   -667.12951   -154.87139   -18678.401    1944.2769   -16734.124 
16280000    303.67577    297.50069   -163.28155    49.450915   -18719.119    1991.7412   -16727.378 
16290000    303.37677    297.52921   -208.60738   -75.435767   -18718.942    1989.7802   -16729.162 
16300000    296.10826     297.4563    -34.13011   -162.72628   -18739.163    1942.1077   -16797.056 
16310000    301.43037    297.29943   -56.495133    95.796663   -18705.057    1977.0142   -16728.043 
16320000    299.90001    297.37715   -940.95428   -84.281819   -18585.265    1966.9769   -16618.288 
16330000    298.49433    298.35792     130.6447   -28.256491   -18713.729    1957.7574   -16755.972 
16340000    304.00713    297.47669    454.47354   -98.116892    -18642.64    1993.9145   -16648.725 
16350000    301.60754    298.36152   -26.202614    94.921426   -18759.488    1978.1762   -16781.311 
16360000    300.89081    297.25417   -413.45682    68.642582   -18794.751    1973.4753   -16821.276 
16370000     302.2932    298.15068   -430.35894     235.4488   -18711.991    1982.6733   -16729.317 
16380000    304.66772    297.77045    106.42269    15.074087   -18765.801    1998.2473   -16767.553 
16390000    302.77617    297.75835   -453.42045      -85.522   -18707.732     1985.841   -16721.891 
16400000     299.5442    298.05252    634.71334    41.255423   -18693.285    1964.6432   -16728.642 
16410000    303.78075    297.57787    32.354664     75.02596   -18689.975    1992.4298   -16697.545 
16420000    303.81976      297.335   -126.46861   -33.625153   -18781.327    1992.6857   -16788.641 
16430000    298.00528    297.45376   -505.51728   -37.608957   -18712.573    1954.5498   -16758.023 
16440000    298.94085    296.90039   -359.97016   -9.5113871   -18747.289     1960.686   -16786.603 
16450000    290.27596    297.91038    825.57977   -9.8923103   -18642.164    1903.8549   -16738.309 
16460000    291.84774    296.57531    600.36689     222.2693   -18652.893    1914.1639   -16738.729 
16470000    294.26657    297.42644    1045.2688    105.64293   -18731.029    1930.0285   -16801.001 
16480000      301.467    298.00333    182.95008    53.937154   -18725.781    1977.2544   -16748.527 
16490000    287.11883    297.39571    800.72058    24.129021    -18713.91     1883.148   -16830.762 
16500000    299.27398    297.46255    360.08429    97.351182   -18717.782    1962.8709   -16754.911 
16510000    299.01468    297.82333   -85.475311    39.612251   -18806.132    1961.1702   -16844.961 
16520000    301.24367    297.63006    916.93245    33.984987   -18749.339    1975.7897   -16773.549 
16530000    294.47606    297.45758    502.10855   -18.121733   -18721.645    1931.4024   -16790.243 
16540000    300.99808    296.82228   -1.9557656   -44.073247   -18747.002    1974.1789   -16772.823 
16550000    297.84422    297.33546    84.475883    -20.57476   -18695.602    1953.4934   -16742.109 
16560000     302.0752    297.56951   -187.66689     108.9616   -18592.961    1981.2435   -16611.717 
16570000    300.72112    297.39865   -249.61149   -202.73633   -18725.916    1972.3624   -16753.554 
16580000    306.86499    297.76609    178.35831    133.26308    -18711.39    2012.6587   -16698.732 
16590000     299.3985    297.88717    780.97251   -119.93951   -18763.862    1963.6876   -16800.175 
16600000     290.0037     298.1429   -45.013343     46.13177   -18669.269    1902.0692     -16767.2 
16610000    290.90096    297.83524      1068.42    37.660507   -18703.185    1907.9541   -16795.231 
16620000    295.41075    297.39081   -156.60716   -1.0460783   -18825.944    1937.5329   -16888.411 
16630000    306.33405     297.1323    853.47683    43.505988   -18758.642    2009.1763   -16749.466 
16640000    293.36503    297.11797    496.97509    200.04062   -18728.455    1924.1154    -16804.34 
16650000    293.84675      297.059   -309.75034    170.13428   -18770.603    1927.2749   -16843.329 
16660000    296.51232    297.74823   -226.24412    224.32475   -18808.446    1944.7578   -16863.688 
16670000    291.41904    297.69355      659.632    166.15216    -18755.25    1911.3521   -16843.898 
16680000    301.32105    298.36718   -369.58301    68.666908   -18643.851    1976.2972   -16667.554 
16690000    296.40009    297.56973     24.76794    5.9976926   -18734.557    1944.0217   -16790.536 
16700000    301.87819    297.32623   -621.46612    53.589149   -18754.151    1979.9513     -16774.2 
16710000    302.82712    297.21818   -131.03654    94.504791   -18551.993    1986.1751   -16565.818 
16720000    302.37765    297.96274   -173.71992    82.427305   -18694.183    1983.2272   -16710.956 
16730000    294.12599    297.50581    626.45544   -75.367815   -18692.295    1929.1064   -16763.188 
16740000    295.57538    297.87448    450.02871   -21.701989   -18642.844    1938.6126   -16704.231 
16750000    293.21602    297.62127    689.78226    -39.68142   -18683.787    1923.1381   -16760.649 
16760000    300.31241    297.65116    869.48674    266.85103   -18706.423    1969.6818   -16736.741 
16770000    297.10877    298.11047   -93.480367    138.90311   -18760.287    1948.6698   -16811.617 
16780000    300.92011    297.81655   -480.12934   -53.827885   -18853.665    1973.6675   -16879.998 
16790000     290.2257    297.84784   -593.64659   -96.551813   -18701.686    1903.5253    -16798.16 
16800000     305.4078    298.21284      887.087    94.057845   -18711.473    2003.1013   -16708.372 
16810000    291.78812      297.986    296.28347   -8.4992313    -18698.86    1913.7728   -16785.087 
16820000    298.47865    297.61834    481.13437    14.050379   -18721.847    1957.6545   -16764.193 
16830000    300.57073    297.25161    45.297543   -44.635671   -18764.745     1971.376   -16793.369 
16840000    294.96261     298.2719    349.15137   -135.53818   -18753.918    1934.5936   -16819.325 
16850000    294.75851    298.59348   -51.394866    19.497651   -18612.542    1933.2549   -16679.287 
16860000    298.88067     297.1176   -495.90839   -75.700353    -18782.42    1960.2912   -16822.129 
16870000    301.80838    297.00038     269.6397    8.1647739   -18805.773    1979.4935    -16826.28 
16880000    297.58992     297.8667   -84.185747    74.071576   -18699.088    1951.8255   -16747.262 
16890000    286.53083    297.03188   -65.140719    72.012288   -18763.168    1879.2914   -16883.876 
16900000    300.54401    297.14817   -372.34439    97.658964   -18690.177    1971.2007   -16718.977 
16910000    291.96569    296.87359    159.11331    40.530471   -18727.808    1914.9375   -16812.871 
16920000       303.02    297.09754    329.74284    157.89969   -18657.265    1987.4402   -16669.824 
16930000    286.40619    297.23729   -159.87119    119.73653   -18728.181     1878.474   -16849.707 
16940000    304.48213     296.6144     158.9455   -39.262383   -18660.601      1997.03   -16663.571 
16950000    302.66125    297.00746    146.19072   -22.284361   -18716.309    1985.0873   -16731.222 
16960000    298.02622    297.39811   -406.97274    131.76677   -18721.291    1954.6871   -16766.603 
16970000    297.14506    297.51302    224.89096    153.84565   -18663.427    1948.9078   -16714.519 
16980000     296.0113    298.11305   -646.66963    129.71935   -18719.301    1941.4718   -16777.829 
16990000    287.76006    297.67487   -691.51707    68.792621   -18567.271    1887.3537   -16679.917 
17000000     293.8957     297.8824    984.24365    144.24172   -18692.354     1927.596   -16764.758 
17010000    299.79422    297.41038   -650.47363     95.74902   -18725.446     1966.283   -16759.163 
17020000    292.52723    297.63239   -1072.2157  -0.88914449   -18637.774    1918.6205   -16719.154 
17030000    291.85396    297.93859   -53.286385    115.95271   -18573.111    1914.2047   -16658.906 
17040000    297.38716    297.18391    633.39267    55.752543   -18720.018    1950.4957   -16769.522 
17050000    293.45146    297.28236    256.43329     -19.0113   -18737.897    1924.6823   -16813.214 
17060000    293.37474    297.57085    69.105649    84.341371   -18715.089    1924.1791    -16790.91 
17070000    298.29272    297.24738   -204.13437    125.74735   -18736.638     1956.435   -16780.203 
17080000    302.04375    298.03291   -389.06971    67.708708   -18713.877    1981.0372    -16732.84 
17090000     294.1812     297.5423   -447.88694   -15.363804   -18643.041    1929.4685   -16713.572 
17100000    295.14397    297.81591     753.5331    32.831345   -18722.273    1935.7831    -16786.49 
17110000     294.6822    297.36175    405.95495    -105.1624   -18795.296    1932.7544   -16862.541 
17120000    296.60391    297.69155   -489.38005   -250.20651   -18641.782    1945.3585   -16696.424 
17130000     303.4347    297.71835   -283.65578    69.517501   -18793.559    1990.1601   -16803.398 
17140000    295.47877    297.82663   -149.63642    42.464539   -18771.492     1937.979   -16833.513 
17150000    301.32671     297.1672      -11.554    67.210596   -18702.497    1976.3343   -16726.162 
17160000    302.98058    298.07858    313.22471   -49.364392   -18791.382    1987.1817     -16804.2 
17170000    301.31466     297.6541    112.76024    119.25068   -18770.254    1976.2552   -16793.999 
17180000    295.27232    297.53555    37.825362    105.02586   -18770.351    1936.6249   -16833.726 
17190000    295.41469    297.56032    1198.9481    63.678978   -18651.173    1937.5587   -16713.614 
17200000    298.84761    297.35453   -263.55802    14.926652   -18642.654    1960.0745    -16682.58 
17210000    294.76778    296.72475    422.65218    38.350896   -18689.359    1933.3158   -16756.043 
17220000    294.82795     298.0802    633.93238    167.13953    -18649.73    1933.7104    -16716.02 
17230000    295.57158    297.88485   -87.418248    151.65959   -18622.091    1938.5877   -16683.503 
17240000    296.39973    297.10114   -72.075351   -61.967576    -18656.93    1944.0193    -16712.91 
17250000    300.97752    297.39586   -40.979371     41.30171   -18732.673    1974.0441   -16758.629 
17260000    295.08551    297.61358   -373.27899    74.539188   -18654.626    1935.3997   -16719.226 
17270000    299.64831    297.58808     420.7482   -40.090804   -18744.607    1965.3261   -16779.281 
17280000    297.04157    297.63934      218.735    90.057142   -18746.095     1948.229   -16797.866 
17290000    293.92579    297.27501    466.35496    123.56565    -18758.58    1927.7933   -16830.787 
17300000    300.43354    297.39026    407.53904    114.61183   -18711.141    1970.4762   -16740.665 
17310000    307.99855    297.72283   -348.99973   0.41523629   -18707.862    2020.0934   -16687.769 
17320000    294.96945    297.77416   -708.46629   -145.72768   -18753.702    1934.6384   -16819.064 
17330000    296.24625    296.64681    -242.2987    26.254754   -18758.582    1943.0127   -16815.569 
17340000    295.86569    296.93847   -44.521951    53.017256   -18715.377    1940.5167    -16774.86 
17350000    297.42587    297.25279    1207.1474    283.49868   -18773.544    1950.7495   -16822.795 
17360000    293.25268    298.08505    148.93198    114.78603   -18714.822    1923.3785   -16791.443 
17370000    298.71384    297.21022     192.4855   -102.39538   -18750.374    1959.1971   -16791.177 
17380000    294.85924    297.51356    300.94636    44.745845   -18761.268    1933.9156   -16827.352 
17390000    303.21528    297.44324     64.80617    122.21683   -18705.066     1988.721   -16716.345 
17400000    297.79035    298.17054   -203.34068    14.408097    -18681.88    1953.1401    -16728.74 
17410000    296.88432    297.06836    366.56992   -97.425006   -18665.369    1947.1977   -16718.171 
17420000    296.64112    297.27748    -462.4808    20.359178   -18740.926    1945.6026   -16795.323 
17430000    288.79635    297.58873    -171.1365    -43.71743   -18712.161    1894.1505    -16818.01 
17440000    300.17252    298.27507    636.44863    89.401325   -18638.291    1968.7642   -16669.527 
17450000    301.38831    297.45892    250.16909    141.42962   -18822.001    1976.7383   -16845.263 
17460000    299.58717    297.73607    60.040288    137.14557   -18710.113    1964.9251   -16745.188 
17470000    293.60876     297.9731     385.4554    43.550737   -18722.091     1925.714   -16796.377 
17480000    292.68493    297.88848    376.06624    23.987166   -18695.458    1919.6548   -16775.803 
17490000    298.76859    297.33272   -419.09764    19.832738   -18728.467    1959.5562   -16768.911 
17500000    302.77722    298.29523     1252.624    91.978747   -18715.202    1985.8479   -16729.355 
17510000    292.76666    297.34417   -306.37087   -121.81446   -18600.512    1920.1908   -16680.321 
17520000    302.98847    297.24288    -82.77472   -29.138398   -18757.744    1987.2334   -16770.511 
17530000    296.84754    297.12269     332.2473   -89.942577   -18709.772    1946.9564   -16762.815 
17540000    292.76884      298.018    660.79394   -204.17002   -18651.163    1920.2052   -16730.957 
17550000     298.1998    297.64647   -339.51524    -91.35184   -18769.493    1955.8256   -16813.668 
17560000     293.2768     297.5263    1180.0122    194.28961   -18688.975    1923.5368   -16765.438 
17570000    297.52705    297.49961    131.63369     12.47102   -18817.751    1951.4132   -16866.337 
17580000    301.96999    297.84627    175.77647    57.603432   -18759.673    1980.5535   -16779.119 
17590000    294.32926    297.23572   -144.85566    80.148381   -18766.958    1930.4396   -16836.519 
17600000    293.56768    298.21841   -447.11766    139.30589   -18752.116    1925.4446   -16826.672 
17610000    294.62364    298.11119   -538.73639   -23.123218   -18680.076    1932.3704   -16747.706 
17620000    302.08076    297.91162     747.7407    49.027066   -18693.789    1981.2799   -16712.509 
17630000    294.65242    297.14269   -438.60951    117.19307    -18709.02    1932.5591   -16776.461 
17640000    296.48453      298.556    292.52323     13.78769   -18653.945    1944.5755   -16709.369 
17650000    294.95551    297.55722    102.61078    92.845386   -18703.086     1934.547   -16768.539 
17660000    303.95381    297.52806    123.20298   -36.847378   -18755.423    1993.5649   -16761.859 
17670000    295.03947    297.89981   -317.29091   -153.55665   -18697.932    1935.0977   -16762.835 
17680000    293.48399    297.90765   -116.71121    8.5927084   -18732.107    1924.8956   -16807.212 
17690000    297.08216    297.29088    -317.3587    66.279836   -18658.969    1948.4952   -16710.473 
17700000    297.71093    297.30102    -110.8342   -133.28717   -18678.427    1952.6192   -16725.808 
17710000    300.16589    297.73609    106.94435   -31.070465   -18696.841    1968.7207   -16728.121 
17720000     296.3265    297.09179    360.23251    61.578551   -18697.118     1943.539   -16753.579 
17730000    298.39172    297.96378    665.74663     56.03362   -18777.966    1957.0844   -16820.881 
17740000    295.66514    297.53882      291.773    39.119485   -18680.177    1939.2013   -16740.975 
17750000    297.74738    297.69817   -739.87137    277.54985   -18673.129    1952.8583   -16720.271 
17760000    294.53019    297.02851    341.79494   -142.95026    -18708.17    1931.7575   -16776.412 
17770000    302.42608    297.54571    538.78273     16.79435   -18652.028    1983.5448   -16668.483 
17780000    300.74669    297.28684   -105.16429    114.20113   -18649.476    1972.5301   -16676.946 
17790000    302.37626    297.68896    -6.235697    33.565879     -18830.8    1983.2181   -16847.582 
17800000     308.9726    297.80585    782.88171    92.860417    -18636.79     2026.482   -16610.308 
17810000    300.01843    297.12269    95.023384    35.376954   -18518.207    1967.7536   -16550.454 
17820000    295.25259    297.70151    901.79143     154.5943   -18707.901    1936.4955   -16771.406 
17830000    296.79288    297.20657   -409.50945   -136.10158   -18709.103     1946.598   -16762.505 
17840000     296.5646    297.54535   -241.54605     172.5696   -18631.406    1945.1007   -16686.305 
17850000    301.49463    297.46856   -7.8817028    31.279131   -18695.114    1977.4357   -16717.679 
17860000    293.11828    297.57647    180.18398    173.79596   -18698.057    1922.4971    -16775.56 
17870000    298.54206    297.88289    -561.7295    168.05015   -18741.947    1958.0704   -16783.877 
17880000    297.60706    297.45771   -312.70404    47.798846   -18770.712    1951.9379   -16818.774 
17890000    300.67775    297.24816   -172.64924   -119.61965    -18740.52    1972.0779   -16768.442 
17900000    304.07995    297.20711   -825.87516    125.27601   -18713.442    1994.3922    -16719.05 
17910000    290.53699    297.54504    855.75083   -5.7461725   -18752.815     1905.567   -16847.248 
17920000    295.21817    297.84408    61.988719    27.002004   -18674.911    1936.2698   -16738.641 
17930000    295.69284    297.35234   -376.65685    48.661667   -18636.164     1939.383   -16696.781 
17940000    300.68483    297.88295   -38.731048    137.14395   -18810.279    1972.1244   -16838.154 
17950000    305.21522    297.82806   -27.790444   -183.03299    -18788.25    2001.8382   -16786.412 
17960000    300.19501    297.66693   -368.15491   -18.311415   -18651.799    1968.9118   -16682.887 
17970000     294.7592    297.71625   -89.788219   -78.717874    -18676.65    1933.2595   -16743.391 
17980000    298.93384    297.67657    586.53403   -18.202865   -18739.375      1960.64   -16778.735 
17990000      300.043    298.12081   -44.878111    114.45403    -18750.84    1967.9147   -16782.925 
18000000    296.64238    297.95436    234.95974    194.97399   -18738.399    1945.6108   -16792.788 
18010000    295.83605    297.92862    324.98736    4.7534049   -18714.852    1940.3223    -16774.53 
18020000    299.96124    297.26718     112.0353  -0.96517479   -18714.459    1967.3785    -16747.08 
18030000     301.4086    297.66974     345.3596    30.725543   -18637.678    1976.8714   -16660.806 
18040000    302.16491    297.08116   -572.60723    96.820302   -18714.197    1981.8319   -16732.365 
18050000    291.65912    297.99804   -176.13921    -34.74646   -18718.357    1912.9268    -16805.43 
18060000    296.62733    297.67102   -77.707104    55.412877   -18691.065    1945.5121   -16745.552 
18070000    292.22144    297.51908   -336.08968    38.747347   -18720.226    1916.6149   -16803.611 
18080000      302.115    297.47502    380.80926    -119.7274   -18666.701    1981.5045   -16685.196 
18090000    300.33848    298.19302   -453.55757   -148.55799   -18701.713    1969.8527    -16731.86 
18100000    292.34388    297.82763    837.25507    18.569758   -18836.272     1917.418   -16918.854 
18110000    307.68967    297.51007   -66.310389    32.711925   -18579.945    2018.0675   -16561.877 
18120000    309.15005     297.7203   -47.348014    193.71776   -18714.899    2027.6458   -16687.253 
18130000    304.74052    297.37089   -1070.2848    113.82861   -18723.255    1998.7247    -16724.53 
18140000    291.93263    297.50566   -413.76481   -102.55704   -18749.588    1914.7206   -16834.868 
18150000    294.27211    297.73349    111.72533   -66.593971   -18693.009    1930.0648   -16762.944 
18160000    288.20493    296.94788    423.47105    66.324668   -18713.103    1890.2715   -16822.832 
18170000    293.33632    297.65016    847.83421    137.89517    -18764.28    1923.9271   -16840.353 
18180000    301.49166    297.69237   -41.077783    11.592868   -18706.829    1977.4162   -16729.413 
18190000    298.63744    297.85171    209.05749    89.460615   -18697.407     1958.696   -16738.711 
18200000    290.75792    297.24763    712.84964    166.28957   -18737.148     1907.016   -16830.132 
18210000    303.87004    297.31812    166.89897   -66.312042   -18769.164    1993.0154   -16776.148 
18220000    295.75797    298.07597   -451.81324   -107.86383   -18661.781    1939.8102   -16721.971 
18230000    293.56675    297.03249    47.792975   -66.164254   -18715.082    1925.4385   -16789.643 
18240000    295.10911    297.62657    34.092016     74.46067   -18698.713    1935.5545   -16763.158 
18250000    287.62697    297.45103   -1056.0836    73.898219   -18700.544    1886.4808   -16814.063 
18260000    301.45596    297.48695   -207.75879   -62.397139    -18724.56    1977.1821   -16747.378 
18270000    305.10188    297.34677    222.87025    412.89861   -18740.003    2001.0948   -16738.908 
18280000    297.75497    297.97759    -985.0589   -68.060636   -18715.078    1952.9081    -16762.17 
18290000    296.90483    297.14579     155.3446   -87.792278   -18786.288    1947.3322   -16838.956 
18300000    299.44697     297.5052    553.04364   -99.897232    -18755.58    1964.0055   -16791.574 
18310000    287.96228    298.25394    283.56588   -31.470809   -18762.972      1888.68   -16874.292 
18320000    293.73488    297.31114   -434.81716   -174.94755   -18641.437    1926.5412   -16714.896 
18330000    301.57251    296.85624    153.91193   -94.190073   -18731.824    1977.9465   -16753.877 
18340000    299.31156    297.41771   -59.678963     147.0688   -18782.795    1963.1174   -16819.678 
18350000    297.18204    297.96027    -133.0801    30.495787   -18751.305    1949.1503   -16802.155 
18360000    295.24928    298.27938    158.37935    73.950643   -18686.336    1936.4738   -16749.862 
18370000    302.64538    297.90487    440.03042    20.519689   -18710.572    1984.9831   -16725.589 
18380000    294.64527    297.52301    613.21545     122.7902   -18835.183    1932.5122   -16902.671 
18390000    296.08077    297.71765    145.21744     212.1759   -18696.567    1941.9274   -16754.639 
18400000    301.68637    297.94694    387.73004    97.465166   -18777.889    1978.6932   -16799.195 
18410000    298.65229    297.82358    408.57002     90.64322   -18732.819    1958.7934   -16774.025 
18420000    288.52455    296.79457   -547.50153  -0.44590883   -18701.918    1892.3678    -16809.55 
18430000    297.41737    297.34713   -28.820583    68.316108   -18701.344    1950.6938    -16750.65 
18440000    305.60677    297.36302    495.19942    198.89117   -18757.382    2004.4063   -16752.976 
18450000     290.5251    297.31307    343.68102   -12.216243   -18616.441     1905.489   -16710.952 
18460000    298.35207    297.36692    509.59731    167.82239   -18741.965    1956.8243    -16785.14 
18470000    299.57822    297.77783    544.68738    13.994569   -18751.061    1964.8663   -16786.195 
18480000    296.55536    297.25311    48.186784    76.813873   -18675.458    1945.0401   -16730.418 
18490000     297.1594    297.41581    104.56227   -9.6177375   -18777.394    1949.0019   -16828.392 
18500000    302.03901    298.06335    78.512373   -101.57036   -18602.487    1981.0061   -16621.481 
18510000    299.46382    297.75089    506.45796   -8.5574628   -18668.361    1964.1161   -16704.245 
18520000    299.70483    297.68755     56.61042   -42.747279    -18702.38    1965.6967   -16736.683 
18530000    293.79828    297.17647    385.59719    139.83739   -18724.094     1926.957   -16797.137 
18540000    296.63273    296.98256   -399.75707    163.65525   -18718.202    1945.5476   -16772.654 
18550000     303.9471    297.82964   -475.69242    3.6734891   -18703.745    1993.5209   -16710.224 
18560000    301.55767    297.98566   -850.49894   -18.181438   -18672.149    1977.8491     -16694.3 
18570000    297.41382    297.19977   -769.56733    1.0759198   -18788.577    1950.6705   -16837.907 
18580000    297.13755    296.87999    119.44666    81.237781   -18735.056    1948.8586   -16786.197 
18590000    295.14793    297.78826   -154.97351   -65.832922   -18791.372    1935.8091   -16855.563 
18600000    295.86751     297.8269   -499.42938   -54.963229   -18711.606    1940.5287   -16771.078 
18610000     297.9118     297.6218   -28.999712   -201.81415   -18666.746    1953.9367   -16712.809 
18620000    293.55294    297.30544   -322.29689   -4.8452869   -18771.666    1925.3479   -16846.318 
18630000    296.55615    298.00071    282.62728    -94.88274   -18745.695    1945.0453   -16800.649 
18640000    294.26385    297.31866    329.38261    21.314456    -18699.75    1930.0106    -16769.74 
18650000     296.5295    297.57232   -610.60491   -89.052133   -18748.187    1944.8705   -16803.316 
18660000     297.5769    296.97774     236.3282    3.6868099   -18776.263    1951.7401   -16824.523 
18670000    292.16542    297.89265    -332.5097    17.053976   -18800.377    1916.2474   -16884.129 
18680000    299.35036    297.65426    529.13141   -0.5553649   -18592.508    1963.3719   -16629.137 
18690000    295.98367    297.53451    201.49264    27.151543   -18770.249    1941.2905   -16828.958 
18700000     283.4457    296.91663   -338.25073   -15.608535   -18693.887    1859.0568    -16834.83 
18710000    293.60663    297.23305    -575.9271    48.992042   -18729.312    1925.7001   -16803.612 
18720000    291.83559    298.44316    54.763347    133.30345   -18681.953    1914.0842   -16767.869 
18730000    291.49356     297.3141   -402.86703   -8.4304777   -18696.281    1911.8409    -16784.44 
18740000    301.98701    297.69186    1024.7579    82.068241   -18650.244    1980.6651   -16669.579 
18750000    299.18841      297.592    -176.7688     99.02678    -18704.52    1962.3097    -16742.21 
18760000    299.25076    297.67774   -183.78451    116.02479   -18808.646    1962.7186   -16845.927 
18770000    300.18422    297.52599   -337.62905    1.8392511   -18705.119     1968.841   -16736.278 
18780000    296.86765    298.04203   -93.343849    216.49426   -18762.506    1947.0883   -16815.418 
18790000    287.84925    297.06287   -721.49395   -63.710676   -18703.887    1887.9387   -16815.948 
18800000     292.1355    297.84804   -492.49355   -122.79306   -18705.605    1916.0512   -16789.553 
18810000    297.15734    297.60111    602.30756   -32.511599   -18674.073    1948.9884   -16725.085 
18820000    301.39476    297.61075   -339.30074    78.652056   -18660.392    1976.7806   -16683.612 
18830000    299.36725    297.78291    -608.2581    16.879681   -18666.939    1963.4827   -16703.456 
18840000    300.82446    298.56921    437.13797    172.50269   -18651.884    1973.0402   -16678.844 
18850000    301.82765    297.01913   -659.40154   -23.983776   -18757.608    1979.6199   -16777.988 
18860000    304.65856    298.03094    -100.9339   -26.879138   -18652.351    1998.1871   -16654.164 
18870000    303.89026    297.44068    460.60798   -230.62365   -18610.724     1993.148   -16617.576 
18880000    292.15999    297.44108   -373.06423   -122.88551   -18755.618    1916.2119   -16839.406 
18890000    298.98203    297.62399   -488.76616    96.411903   -18733.562    1960.9561   -16772.606 
18900000    300.63476    297.75623    125.74539    8.5755068   -18701.102    1971.7959   -16729.306 
18910000    295.69842    297.47013   -108.80481   -104.69741   -18690.857    1939.4196   -16751.437 
18920000    288.88303     297.9295   -564.34354    125.87161   -18699.699     1894.719    -16804.98 
18930000    293.41267    297.59692   -658.68752   -54.616825   -18648.098    1924.4279    -16723.67 
18940000    301.70021    297.70157    522.29738   -79.186893   -18723.161     1978.784   -16744.377 
18950000    307.00559    297.96285   -85.855521   -4.6848995   -18740.878    2013.5808   -16727.297 
18960000    297.62784    297.52449    74.014077   -10.204598   -18757.574    1952.0742     -16805.5 
18970000    299.18379    297.33373    552.74721    71.656658   -18721.222    1962.2794   -16758.943 
18980000    300.89057    297.22412   -339.53963    141.05219   -18741.883    1973.4738    -16768.41 
18990000    289.50576    297.16102    125.26189   -124.94743   -18721.709    1898.8033   -16822.905 
19000000    292.02072    297.82698    821.95841    38.303995   -18725.356    1915.2984   -16810.057 
19010000    301.40228    297.50814   -118.66922    142.09353   -18713.727    1976.8299   -16736.897 
19020000    305.37874    297.80837   -159.99481    120.61323   -18624.634    2002.9107   -16621.723 
19030000    304.41947    296.92134   -646.46764    50.699527   -18785.522     1996.619   -16788.903 
19040000    298.99982    297.91215    110.56253    330.63391   -18710.794    1961.0728   -16749.721 
19050000    294.52133    297.57332    35.336698    199.26983   -18728.918    1931.6994   -16797.218 
19060000    303.43985    297.60634    187.45587   -32.131395   -18742.682    1990.1939   -16752.488 
19070000    286.12701    297.77702    547.83719    162.75249   -18724.638    1876.6429   -16847.995 
19080000    292.99473     297.5665    266.79273    87.162226    -18741.59    1921.6867   -16819.904 
19090000    293.14738    297.63639    252.24365    23.294379   -18665.165    1922.6879   -16742.477 
19100000    297.41082    297.25539    187.22107    -9.033384   -18806.892    1950.6509   -16856.241 
19110000    308.08172     296.9891    113.55201    70.902202   -18792.962    2020.6389   -16772.323 
19120000    294.69218    297.85994   -32.124953       14.184   -18771.722    1932.8199   -16838.902 
19130000    294.89549    297.76653   -1165.7128   -109.17156   -18691.188    1934.1534   -16757.034 
19140000    299.57982    297.55661   -90.231627   -65.798679   -18765.263    1964.8769   -16800.386 
19150000    292.51819    297.10273    120.37592   -56.064437    -18673.29    1918.5612   -16754.729 
19160000    309.90904    297.70348     755.0967    131.10842   -18603.972    2032.6239   -16571.348 
19170000    297.08134    298.08434   -115.79877    201.38606   -18613.468    1948.4899   -16664.978 
19180000    306.40565    297.60214    808.18553    68.241698   -18777.493     2009.646   -16767.847 
19190000    301.65798    298.31561   -96.918735    33.945516   -18703.632    1978.5071   -16725.125 
19200000    295.73914    297.08269   -257.53161   -39.936765   -18766.688    1939.6867   -16827.002 
19210000    296.55905    297.39331    525.13989   -22.738199   -18652.386    1945.0643   -16707.322 
19220000    294.36875     297.6211   -136.30245   -39.965107   -18803.049    1930.6986    -16872.35 
19230000     300.2199    297.89331   -534.54818   -87.710503   -18765.485     1969.075    -16796.41 
19240000    301.96227    298.53179    379.23993    135.43277    -18742.79    1980.5028   -16762.287 
19250000    297.77851    297.96804     424.4603    48.901906   -18784.792    1953.0625    -16831.73 
19260000    300.48612    297.56824    425.86687    29.580599   -18749.939     1970.821   -16779.118 
19270000     299.2801    297.71954    54.796658   -45.503646   -18693.465    1962.9111   -16730.554 
19280000    301.08218    297.58707   -41.820791    3.1056762   -18734.815    1974.7305   -16760.084 
19290000    304.36958    297.33783   -117.81414   -5.4336992   -18724.633    1996.2918   -16728.341 
19300000    298.84345    297.27951    463.41484   -53.223587   -18729.233    1960.0472   -16769.186 
19310000    298.08753    297.74921   -15.120028     58.41508   -18719.334    1955.0893   -16764.245 
19320000    294.31007    297.33233    493.07904   -48.523391   -18762.427    1930.3137   -16832.113 
19330000    300.36392    297.90914    238.29493    137.13133   -18724.883    1970.0196   -16754.863 
19340000    295.79408    297.72984   -340.35413   -57.181997   -18658.377    1940.0471    -16718.33 
19350000    295.35002    298.45343   -171.10888   -60.958422   -18587.666    1937.1346   -16650.531 
19360000    296.26481    298.24914   -821.01465    -29.07883   -18774.326    1943.1344   -16831.192 
19370000    293.00249    297.43131   -94.818844    25.138325    -18697.82    1921.7376   -16776.082 
19380000    298.69191    298.27125   -229.66303    107.82359   -18723.604    1959.0532   -16764.551 
19390000    291.56988    298.35284    109.83341   -80.848626   -18681.195    1912.3415   -16768.854 
19400000     293.0524    297.71498   -136.69388    29.610815   -18720.734     1922.065   -16798.669 
19410000    293.07766     297.3296    14.971278   -40.360398   -18658.653    1922.2306   -16736.422 
19420000    295.87123    297.70566    765.82386   -20.903047   -18755.737    1940.5531   -16815.184 
19430000    290.66826    297.25797   -564.41646    54.595613   -18796.661    1906.4279   -16890.233 
19440000    299.30501    298.01642   -53.020745    78.378434   -18698.095    1963.0744   -16735.021 
19450000    298.80915     296.7066    251.80656   -3.8679013   -18726.363    1959.8222   -16766.541 
19460000    297.35584    297.93975   -152.00235    147.77132   -18651.171    1950.2903   -16700.881 
19470000    305.90432    297.70073    532.78059    110.58367   -18720.958    2006.3578   -16714.601 
19480000    297.53693    297.50667   -272.73879    136.66176   -18730.147     1951.478   -16778.669 
19490000    300.49515    297.68552     255.3573   -52.165152   -18659.355    1970.8803   -16688.474 
19500000    293.72631    297.14086    203.06561    87.406963   -18770.774     1926.485   -16844.289 
19510000    291.26167    297.80117    650.41326    88.899158   -18619.521      1910.32   -16709.201 
19520000    301.60543    297.48784   -138.43206   -25.017233   -18655.888    1978.1623   -16677.726 
19530000    296.85361    297.18874    282.11241    162.51995   -18749.838    1946.9962   -16802.842 
19540000    301.36719     297.3117    460.20511   -40.909474   -18721.453    1976.5998   -16744.853 
19550000    299.85123    298.03296     698.8824     47.26741   -18655.144    1966.6569   -16688.488 
19560000    305.62428    297.64392   -320.25246    11.612122   -18670.888    2004.5211   -16666.366 
19570000    295.33218    297.40829   -184.67069   -73.968415     -18633.7    1937.0175   -16696.683 
19580000    295.41151    297.87587    656.60585    39.261948   -18732.884    1937.5378   -16795.346 
19590000    284.26091    296.98317    39.387143    69.287705   -18697.502    1864.4036   -16833.099 
19600000    293.93304    297.69622    800.57805    151.62457   -18751.535    1927.8409   -16823.694 
19610000     304.8663     297.5791   -258.86023   -153.00415    -18777.39    1999.5497   -16777.841 
19620000    298.72864    297.07001   -197.28109    250.56098   -18779.854    1959.2941    -16820.56 
19630000    294.54896    297.22688   -406.28972    74.104585   -18689.564    1931.8805   -16757.684 
19640000    292.77534    297.50751   -238.07643   -193.41954   -18713.302    1920.2478   -16793.054 
19650000      299.627    297.51205    410.19944    192.15701   -18747.868    1965.1863   -16782.682 
19660000    297.93832    297.42892    72.474579     126.5892   -18752.783    1954.1106   -16798.672 
19670000     296.7051    297.38535   -309.33128   -42.792679   -18786.687    1946.0222   -16840.664 
19680000    297.74052    297.48632   -471.10473   -173.99921   -18733.396    1952.8133   -16780.582 
19690000    300.57612    297.63377    246.04541   -238.17889   -18702.827    1971.4113   -16731.415 
19700000    295.63642    297.66797   -337.13982   -12.035319   -18626.098     1939.013   -16687.085 
19710000    300.83977    298.38357     463.4038   -20.265019   -18615.506    1973.1406   -16642.366 
19720000    294.41484    297.25337   -344.45302   -79.209774    -18750.89    1931.0009    -16819.89 
19730000    307.09001    297.39191   -196.74632    104.94701   -18664.021    2014.1345   -16649.887 
19740000    289.85558    298.03705   -950.45918   -184.86962   -18761.554    1901.0978   -16860.457 
19750000    290.77054    297.78522   -343.23661   -67.470601   -18785.033    1907.0987   -16877.935 
19760000    302.51144    297.60021    279.57965    70.001903   -18756.294    1984.1047   -16772.189 
19770000    302.67725    296.92443    826.76267    153.73742   -18737.777    1985.1922   -16752.585 
19780000    300.20898    297.36244   -264.65471    6.3541959    -18825.41    1969.0034   -16856.407 
19790000    303.49297    297.72208   -523.19468    53.907769   -18656.255    1990.5423   -16665.713 
19800000    293.88953    297.14547    326.83708     104.5591   -18660.152    1927.5555   -16732.596 
19810000    293.35631    297.41913    48.510916    141.55526    -18758.77    1924.0582   -16834.712 
19820000    299.16243    297.25998    107.75663    57.050089   -18738.152    1962.1393   -16776.012 
19830000    295.29257    298.00883   -311.00155    19.528156   -18739.151    1936.7577   -16802.393 
19840000    296.47815    297.86952    274.55351    9.0187184   -18679.062    1944.5337   -16734.528 
19850000    295.95646    298.17463   -405.42775    103.90707   -18640.475     1941.112   -16699.363 
19860000    293.22629    297.43412   -455.98114    45.949871   -18708.997    1923.2055   -16785.792 
19870000    288.01329    297.39414   -153.13725    70.537494   -18689.011    1889.0146   -16799.996 
19880000    291.40425    296.84208    383.81704    61.233596    -18653.27    1911.2551   -16742.015 
19890000    301.24862    297.69928   -269.09237   -20.789829   -18666.793    1975.8221   -16690.971 
19900000    289.77899     297.1699    -308.7232     1.467587   -18703.303    1900.5954   -16802.708 
19910000     292.5379    297.41459    34.976012     168.3656   -18682.029    1918.6905   -16763.338 
19920000    300.03344    297.73536    363.66932    73.722559   -18735.323     1967.852   -16767.471 
19930000    294.83233    297.44263   -590.73516   -44.922248   -18700.562    1933.7391   -16766.823 
19940000    296.95108    297.17998   -290.09076   -90.086069   -18701.936    1947.6355     -16754.3 
19950000    299.98875    297.93565    396.69534   -31.452294   -18693.612    1967.5589   -16726.053 
19960000    295.89621    297.53083   -351.65633   -3.0691373   -18737.149    1940.7168   -16796.432 
19970000       303.78    297.37041   -311.75638    38.457599   -18791.564    1992.4249   -16799.139 
19980000    291.80127    297.61838   -1173.2032    26.709188   -18646.288    1913.8591   -16732.429 
19990000    297.37244    297.52039    103.87207    161.54153   -18706.053    1950.3991   -16755.654 
20000000    298.86708     298.3925   -10.006863    96.051825    -18672.92    1960.2022   -16712.718 
Loop time of 27705.7 on 128 procs for 20000000 steps with 3384 atoms

Performance: 62.370 ns/day, 0.385 hours/ns, 721.874 timesteps/s
99.3% CPU use with 128 MPI tasks x no OpenMP threads

MPI task timing breakdown:
Section |  min time  |  avg time  |  max time  |%varavg| %total
---------------------------------------------------------------
Pair    | 5168.3     | 6113.6     | 6990.3     | 600.2 | 22.07
Bond    | 21.865     | 22.611     | 24.124     |   9.7 |  0.08
Kspace  | 8740.3     | 9596.3     | 10486      | 472.3 | 34.64
Neigh   | 920.48     | 935.87     | 954.2      |  33.0 |  3.38
Comm    | 2357       | 2570.6     | 2808.7     | 199.8 |  9.28
Output  | 0.99913    | 18.821     | 22.084     |  73.4 |  0.07
Modify  | 8027.7     | 8160.9     | 8277.2     |  72.3 | 29.46
Other   |            | 286.9      |            |       |  1.04

Nlocal:    26.4375 ave 35 max 19 min
Histogram: 6 10 7 28 16 28 15 8 7 3
Nghost:    3100.55 ave 3144 max 3061 min
Histogram: 2 9 10 24 25 22 23 9 2 2
Neighs:    10610.3 ave 14990 max 6320 min
Histogram: 2 3 17 21 25 21 15 17 6 1

Total # of neighbors = 1358119
Ave neighs/atom = 401.335
Ave special neighs/atom = 2.12766
Neighbor list builds = 2377534
Dangerous builds = 0

quit
